Au 
 1.0000000000000000
    48.5143429412182741    0.0000000000000000    0.0000000000000000
     0.0000000000000000   47.1187516621203528    0.0000000000000000
     0.0000000000000000    0.0000000000000000   63.2749350086167084
 Au 
 1241
Cartesian
 24.2571714706091370 22.1278744362873034 10.0000000000000000
 24.2571714706091370 22.1278744362873034 12.8849956672411139
 24.2571714706091370 22.1278744362873034 15.7699913344822278
 24.2571714706091370 22.1278744362873034 18.6549870017233417
 24.2571714706091370 22.1278744362873034 21.5399826689644556
 24.2571714706091370 22.1278744362873034 24.4249783362055695
 24.2571714706091370 22.1278744362873034 27.3099740034466834
 24.2571714706091370 22.1278744362873034 30.1949696706877972
 24.2571714706091370 22.1278744362873034 33.0799653379289111
 24.2571714706091370 22.1278744362873034 35.9649610051700250
 24.2571714706091370 22.1278744362873034 38.8499566724111389
 24.2571714706091370 22.1278744362873034 41.7349523396522528
 24.2571714706091370 22.1278744362873034 44.6199480068933667
 24.2571714706091370 22.1278744362873034 47.5049436741344806
 24.2571714706091370 22.1278744362873034 50.3899393413755945
 24.2571714706091370 22.1278744362873034 53.2749350086167084
 26.6333667157106611 22.8999470735157651 11.4424978336205569
 26.6333667157106611 22.8999470735157651 14.3274935008616708
 26.6333667157106611 22.8999470735157651 17.2124891681027847
 26.6333667157106611 22.8999470735157651 20.0974848353438986
 26.6333667157106611 22.8999470735157651 22.9824805025850125
 26.6333667157106611 22.8999470735157651 25.8674761698261264
 26.6333667157106611 22.8999470735157651 28.7524718370672403
 26.6333667157106611 22.8999470735157651 31.6374675043083542
 26.6333667157106611 22.8999470735157651 34.5224631715494681
 26.6333667157106611 22.8999470735157651 37.4074588387905820
 26.6333667157106611 22.8999470735157651 40.2924545060316959
 26.6333667157106611 22.8999470735157651 43.1774501732728098
 26.6333667157106611 22.8999470735157651 46.0624458405139237
 26.6333667157106611 22.8999470735157651 48.9474415077550375
 26.6333667157106611 22.8999470735157651 51.8324371749961514
 24.2571714706091370 24.6263539739261432 11.4424978336205569
 24.2571714706091370 24.6263539739261432 14.3274935008616708
 24.2571714706091370 24.6263539739261432 17.2124891681027847
 24.2571714706091370 24.6263539739261432 20.0974848353438986
 24.2571714706091370 24.6263539739261432 22.9824805025850125
 24.2571714706091370 24.6263539739261432 25.8674761698261264
 24.2571714706091370 24.6263539739261432 28.7524718370672403
 24.2571714706091370 24.6263539739261432 31.6374675043083542
 24.2571714706091370 24.6263539739261432 34.5224631715494681
 24.2571714706091370 24.6263539739261432 37.4074588387905820
 24.2571714706091370 24.6263539739261432 40.2924545060316959
 24.2571714706091370 24.6263539739261432 43.1774501732728098
 24.2571714706091370 24.6263539739261432 46.0624458405139237
 24.2571714706091370 24.6263539739261432 48.9474415077550375
 24.2571714706091370 24.6263539739261432 51.8324371749961514
 21.8809762255076130 22.8999470735157651 11.4424978336205569
 21.8809762255076130 22.8999470735157651 14.3274935008616708
 21.8809762255076130 22.8999470735157651 17.2124891681027847
 21.8809762255076130 22.8999470735157651 20.0974848353438986
 21.8809762255076130 22.8999470735157651 22.9824805025850125
 21.8809762255076130 22.8999470735157651 25.8674761698261264
 21.8809762255076130 22.8999470735157651 28.7524718370672403
 21.8809762255076130 22.8999470735157651 31.6374675043083542
 21.8809762255076130 22.8999470735157651 34.5224631715494681
 21.8809762255076130 22.8999470735157651 37.4074588387905820
 21.8809762255076130 22.8999470735157651 40.2924545060316959
 21.8809762255076130 22.8999470735157651 43.1774501732728098
 21.8809762255076130 22.8999470735157651 46.0624458405139237
 21.8809762255076130 22.8999470735157651 48.9474415077550375
 21.8809762255076130 22.8999470735157651 51.8324371749961514
 22.7886020452305083 20.1065620302394201 11.4424978336205569
 22.7886020452305083 20.1065620302394201 14.3274935008616708
 22.7886020452305083 20.1065620302394201 17.2124891681027847
 22.7886020452305083 20.1065620302394201 20.0974848353438986
 22.7886020452305083 20.1065620302394201 22.9824805025850125
 22.7886020452305083 20.1065620302394201 25.8674761698261264
 22.7886020452305083 20.1065620302394201 28.7524718370672403
 22.7886020452305083 20.1065620302394201 31.6374675043083542
 22.7886020452305083 20.1065620302394201 34.5224631715494681
 22.7886020452305083 20.1065620302394201 37.4074588387905820
 22.7886020452305083 20.1065620302394201 40.2924545060316959
 22.7886020452305083 20.1065620302394201 43.1774501732728098
 22.7886020452305083 20.1065620302394201 46.0624458405139237
 22.7886020452305083 20.1065620302394201 48.9474415077550375
 22.7886020452305083 20.1065620302394201 51.8324371749961514
 25.7257408959877658 20.1065620302394201 11.4424978336205569
 25.7257408959877658 20.1065620302394201 14.3274935008616708
 25.7257408959877658 20.1065620302394201 17.2124891681027847
 25.7257408959877658 20.1065620302394201 20.0974848353438986
 25.7257408959877658 20.1065620302394201 22.9824805025850125
 25.7257408959877658 20.1065620302394201 25.8674761698261264
 25.7257408959877658 20.1065620302394201 28.7524718370672403
 25.7257408959877658 20.1065620302394201 31.6374675043083542
 25.7257408959877658 20.1065620302394201 34.5224631715494681
 25.7257408959877658 20.1065620302394201 37.4074588387905820
 25.7257408959877658 20.1065620302394201 40.2924545060316959
 25.7257408959877658 20.1065620302394201 43.1774501732728098
 25.7257408959877658 20.1065620302394201 46.0624458405139237
 25.7257408959877658 20.1065620302394201 48.9474415077550375
 25.7257408959877658 20.1065620302394201 51.8324371749961514
 29.0095619608121815 23.6720197107442303 12.8849956672411139
 29.0095619608121815 23.6720197107442303 15.7699913344822278
 29.0095619608121815 23.6720197107442303 18.6549870017233417
 29.0095619608121815 23.6720197107442303 21.5399826689644556
 29.0095619608121815 23.6720197107442303 24.4249783362055695
 29.0095619608121815 23.6720197107442303 27.3099740034466834
 29.0095619608121815 23.6720197107442303 30.1949696706877972
 29.0095619608121815 23.6720197107442303 33.0799653379289111
 29.0095619608121815 23.6720197107442303 35.9649610051700250
 29.0095619608121815 23.6720197107442303 38.8499566724111389
 29.0095619608121815 23.6720197107442303 41.7349523396522528
 29.0095619608121815 23.6720197107442303 44.6199480068933667
 29.0095619608121815 23.6720197107442303 47.5049436741344806
 29.0095619608121815 23.6720197107442303 50.3899393413755945
 26.6333667157106611 25.3984266111546084 12.8849956672411139
 26.6333667157106611 25.3984266111546084 15.7699913344822278
 26.6333667157106611 25.3984266111546084 18.6549870017233417
 26.6333667157106611 25.3984266111546084 21.5399826689644556
 26.6333667157106611 25.3984266111546084 24.4249783362055695
 26.6333667157106611 25.3984266111546084 27.3099740034466834
 26.6333667157106611 25.3984266111546084 30.1949696706877972
 26.6333667157106611 25.3984266111546084 33.0799653379289111
 26.6333667157106611 25.3984266111546084 35.9649610051700250
 26.6333667157106611 25.3984266111546084 38.8499566724111389
 26.6333667157106611 25.3984266111546084 41.7349523396522528
 26.6333667157106611 25.3984266111546084 44.6199480068933667
 26.6333667157106611 25.3984266111546084 47.5049436741344806
 26.6333667157106611 25.3984266111546084 50.3899393413755945
 24.2571714706091370 27.1248335115649866 12.8849956672411139
 24.2571714706091370 27.1248335115649866 15.7699913344822278
 24.2571714706091370 27.1248335115649866 18.6549870017233417
 24.2571714706091370 27.1248335115649866 21.5399826689644556
 24.2571714706091370 27.1248335115649866 24.4249783362055695
 24.2571714706091370 27.1248335115649866 27.3099740034466834
 24.2571714706091370 27.1248335115649866 30.1949696706877972
 24.2571714706091370 27.1248335115649866 33.0799653379289111
 24.2571714706091370 27.1248335115649866 35.9649610051700250
 24.2571714706091370 27.1248335115649866 38.8499566724111389
 24.2571714706091370 27.1248335115649866 41.7349523396522528
 24.2571714706091370 27.1248335115649866 44.6199480068933667
 24.2571714706091370 27.1248335115649866 47.5049436741344806
 24.2571714706091370 27.1248335115649866 50.3899393413755945
 21.8809762255076130 25.3984266111546084 12.8849956672411139
 21.8809762255076130 25.3984266111546084 15.7699913344822278
 21.8809762255076130 25.3984266111546084 18.6549870017233417
 21.8809762255076130 25.3984266111546084 21.5399826689644556
 21.8809762255076130 25.3984266111546084 24.4249783362055695
 21.8809762255076130 25.3984266111546084 27.3099740034466834
 21.8809762255076130 25.3984266111546084 30.1949696706877972
 21.8809762255076130 25.3984266111546084 33.0799653379289111
 21.8809762255076130 25.3984266111546084 35.9649610051700250
 21.8809762255076130 25.3984266111546084 38.8499566724111389
 21.8809762255076130 25.3984266111546084 41.7349523396522528
 21.8809762255076130 25.3984266111546084 44.6199480068933667
 21.8809762255076130 25.3984266111546084 47.5049436741344806
 21.8809762255076130 25.3984266111546084 50.3899393413755945
 19.5047809804060925 23.6720197107442303 12.8849956672411139
 19.5047809804060925 23.6720197107442303 15.7699913344822278
 19.5047809804060925 23.6720197107442303 18.6549870017233417
 19.5047809804060925 23.6720197107442303 21.5399826689644556
 19.5047809804060925 23.6720197107442303 24.4249783362055695
 19.5047809804060925 23.6720197107442303 27.3099740034466834
 19.5047809804060925 23.6720197107442303 30.1949696706877972
 19.5047809804060925 23.6720197107442303 33.0799653379289111
 19.5047809804060925 23.6720197107442303 35.9649610051700250
 19.5047809804060925 23.6720197107442303 38.8499566724111389
 19.5047809804060925 23.6720197107442303 41.7349523396522528
 19.5047809804060925 23.6720197107442303 44.6199480068933667
 19.5047809804060925 23.6720197107442303 47.5049436741344806
 19.5047809804060925 23.6720197107442303 50.3899393413755945
 20.4124068001289842 20.8786346674678818 12.8849956672411139
 20.4124068001289842 20.8786346674678818 15.7699913344822278
 20.4124068001289842 20.8786346674678818 18.6549870017233417
 20.4124068001289842 20.8786346674678818 21.5399826689644556
 20.4124068001289842 20.8786346674678818 24.4249783362055695
 20.4124068001289842 20.8786346674678818 27.3099740034466834
 20.4124068001289842 20.8786346674678818 30.1949696706877972
 20.4124068001289842 20.8786346674678818 33.0799653379289111
 20.4124068001289842 20.8786346674678818 35.9649610051700250
 20.4124068001289842 20.8786346674678818 38.8499566724111389
 20.4124068001289842 20.8786346674678818 41.7349523396522528
 20.4124068001289842 20.8786346674678818 44.6199480068933667
 20.4124068001289842 20.8786346674678818 47.5049436741344806
 20.4124068001289842 20.8786346674678818 50.3899393413755945
 21.3200326198518795 18.0852496241915368 12.8849956672411139
 21.3200326198518795 18.0852496241915368 15.7699913344822278
 21.3200326198518795 18.0852496241915368 18.6549870017233417
 21.3200326198518795 18.0852496241915368 21.5399826689644556
 21.3200326198518795 18.0852496241915368 24.4249783362055695
 21.3200326198518795 18.0852496241915368 27.3099740034466834
 21.3200326198518795 18.0852496241915368 30.1949696706877972
 21.3200326198518795 18.0852496241915368 33.0799653379289111
 21.3200326198518795 18.0852496241915368 35.9649610051700250
 21.3200326198518795 18.0852496241915368 38.8499566724111389
 21.3200326198518795 18.0852496241915368 41.7349523396522528
 21.3200326198518795 18.0852496241915368 44.6199480068933667
 21.3200326198518795 18.0852496241915368 47.5049436741344806
 21.3200326198518795 18.0852496241915368 50.3899393413755945
 24.2571714706091370 18.0852496241915333 12.8849956672411139
 24.2571714706091370 18.0852496241915333 15.7699913344822278
 24.2571714706091370 18.0852496241915333 18.6549870017233417
 24.2571714706091370 18.0852496241915333 21.5399826689644556
 24.2571714706091370 18.0852496241915333 24.4249783362055695
 24.2571714706091370 18.0852496241915333 27.3099740034466834
 24.2571714706091370 18.0852496241915333 30.1949696706877972
 24.2571714706091370 18.0852496241915333 33.0799653379289111
 24.2571714706091370 18.0852496241915333 35.9649610051700250
 24.2571714706091370 18.0852496241915333 38.8499566724111389
 24.2571714706091370 18.0852496241915333 41.7349523396522528
 24.2571714706091370 18.0852496241915333 44.6199480068933667
 24.2571714706091370 18.0852496241915333 47.5049436741344806
 24.2571714706091370 18.0852496241915333 50.3899393413755945
 27.1943103213663910 18.0852496241915333 12.8849956672411139
 27.1943103213663910 18.0852496241915333 15.7699913344822278
 27.1943103213663910 18.0852496241915333 18.6549870017233417
 27.1943103213663910 18.0852496241915333 21.5399826689644556
 27.1943103213663910 18.0852496241915333 24.4249783362055695
 27.1943103213663910 18.0852496241915333 27.3099740034466834
 27.1943103213663910 18.0852496241915333 30.1949696706877972
 27.1943103213663910 18.0852496241915333 33.0799653379289111
 27.1943103213663910 18.0852496241915333 35.9649610051700250
 27.1943103213663910 18.0852496241915333 38.8499566724111389
 27.1943103213663910 18.0852496241915333 41.7349523396522528
 27.1943103213663910 18.0852496241915333 44.6199480068933667
 27.1943103213663910 18.0852496241915333 47.5049436741344806
 27.1943103213663910 18.0852496241915333 50.3899393413755945
 28.1019361410892863 20.8786346674678818 12.8849956672411139
 28.1019361410892863 20.8786346674678818 15.7699913344822278
 28.1019361410892863 20.8786346674678818 18.6549870017233417
 28.1019361410892863 20.8786346674678818 21.5399826689644556
 28.1019361410892863 20.8786346674678818 24.4249783362055695
 28.1019361410892863 20.8786346674678818 27.3099740034466834
 28.1019361410892863 20.8786346674678818 30.1949696706877972
 28.1019361410892863 20.8786346674678818 33.0799653379289111
 28.1019361410892863 20.8786346674678818 35.9649610051700250
 28.1019361410892863 20.8786346674678818 38.8499566724111389
 28.1019361410892863 20.8786346674678818 41.7349523396522528
 28.1019361410892863 20.8786346674678818 44.6199480068933667
 28.1019361410892863 20.8786346674678818 47.5049436741344806
 28.1019361410892863 20.8786346674678818 50.3899393413755945
 31.3857572059137055 24.4440923479726919 14.3274935008616708
 31.3857572059137055 24.4440923479726919 17.2124891681027847
 31.3857572059137055 24.4440923479726919 20.0974848353438986
 31.3857572059137055 24.4440923479726919 22.9824805025850125
 31.3857572059137055 24.4440923479726919 25.8674761698261264
 31.3857572059137055 24.4440923479726919 28.7524718370672403
 31.3857572059137055 24.4440923479726919 31.6374675043083542
 31.3857572059137055 24.4440923479726919 34.5224631715494681
 31.3857572059137055 24.4440923479726919 37.4074588387905820
 31.3857572059137055 24.4440923479726919 40.2924545060316959
 31.3857572059137055 24.4440923479726919 43.1774501732728098
 31.3857572059137055 24.4440923479726919 46.0624458405139237
 31.3857572059137055 24.4440923479726919 48.9474415077550375
 29.0095619608121815 26.1704992483830701 14.3274935008616708
 29.0095619608121815 26.1704992483830701 17.2124891681027847
 29.0095619608121815 26.1704992483830701 20.0974848353438986
 29.0095619608121815 26.1704992483830701 22.9824805025850125
 29.0095619608121815 26.1704992483830701 25.8674761698261264
 29.0095619608121815 26.1704992483830701 28.7524718370672403
 29.0095619608121815 26.1704992483830701 31.6374675043083542
 29.0095619608121815 26.1704992483830701 34.5224631715494681
 29.0095619608121815 26.1704992483830701 37.4074588387905820
 29.0095619608121815 26.1704992483830701 40.2924545060316959
 29.0095619608121815 26.1704992483830701 43.1774501732728098
 29.0095619608121815 26.1704992483830701 46.0624458405139237
 29.0095619608121815 26.1704992483830701 48.9474415077550375
 26.6333667157106611 27.8969061487934482 14.3274935008616708
 26.6333667157106611 27.8969061487934482 17.2124891681027847
 26.6333667157106611 27.8969061487934482 20.0974848353438986
 26.6333667157106611 27.8969061487934482 22.9824805025850125
 26.6333667157106611 27.8969061487934482 25.8674761698261264
 26.6333667157106611 27.8969061487934482 28.7524718370672403
 26.6333667157106611 27.8969061487934482 31.6374675043083542
 26.6333667157106611 27.8969061487934482 34.5224631715494681
 26.6333667157106611 27.8969061487934482 37.4074588387905820
 26.6333667157106611 27.8969061487934482 40.2924545060316959
 26.6333667157106611 27.8969061487934482 43.1774501732728098
 26.6333667157106611 27.8969061487934482 46.0624458405139237
 26.6333667157106611 27.8969061487934482 48.9474415077550375
 24.2571714706091370 29.6233130492038299 14.3274935008616708
 24.2571714706091370 29.6233130492038299 17.2124891681027847
 24.2571714706091370 29.6233130492038299 20.0974848353438986
 24.2571714706091370 29.6233130492038299 22.9824805025850125
 24.2571714706091370 29.6233130492038299 25.8674761698261264
 24.2571714706091370 29.6233130492038299 28.7524718370672403
 24.2571714706091370 29.6233130492038299 31.6374675043083542
 24.2571714706091370 29.6233130492038299 34.5224631715494681
 24.2571714706091370 29.6233130492038299 37.4074588387905820
 24.2571714706091370 29.6233130492038299 40.2924545060316959
 24.2571714706091370 29.6233130492038299 43.1774501732728098
 24.2571714706091370 29.6233130492038299 46.0624458405139237
 24.2571714706091370 29.6233130492038299 48.9474415077550375
 21.8809762255076166 27.8969061487934482 14.3274935008616708
 21.8809762255076166 27.8969061487934482 17.2124891681027847
 21.8809762255076166 27.8969061487934482 20.0974848353438986
 21.8809762255076166 27.8969061487934482 22.9824805025850125
 21.8809762255076166 27.8969061487934482 25.8674761698261264
 21.8809762255076166 27.8969061487934482 28.7524718370672403
 21.8809762255076166 27.8969061487934482 31.6374675043083542
 21.8809762255076166 27.8969061487934482 34.5224631715494681
 21.8809762255076166 27.8969061487934482 37.4074588387905820
 21.8809762255076166 27.8969061487934482 40.2924545060316959
 21.8809762255076166 27.8969061487934482 43.1774501732728098
 21.8809762255076166 27.8969061487934482 46.0624458405139237
 21.8809762255076166 27.8969061487934482 48.9474415077550375
 19.5047809804060925 26.1704992483830736 14.3274935008616708
 19.5047809804060925 26.1704992483830736 17.2124891681027847
 19.5047809804060925 26.1704992483830736 20.0974848353438986
 19.5047809804060925 26.1704992483830736 22.9824805025850125
 19.5047809804060925 26.1704992483830736 25.8674761698261264
 19.5047809804060925 26.1704992483830736 28.7524718370672403
 19.5047809804060925 26.1704992483830736 31.6374675043083542
 19.5047809804060925 26.1704992483830736 34.5224631715494681
 19.5047809804060925 26.1704992483830736 37.4074588387905820
 19.5047809804060925 26.1704992483830736 40.2924545060316959
 19.5047809804060925 26.1704992483830736 43.1774501732728098
 19.5047809804060925 26.1704992483830736 46.0624458405139237
 19.5047809804060925 26.1704992483830736 48.9474415077550375
 17.1285857353045685 24.4440923479726919 14.3274935008616708
 17.1285857353045685 24.4440923479726919 17.2124891681027847
 17.1285857353045685 24.4440923479726919 20.0974848353438986
 17.1285857353045685 24.4440923479726919 22.9824805025850125
 17.1285857353045685 24.4440923479726919 25.8674761698261264
 17.1285857353045685 24.4440923479726919 28.7524718370672403
 17.1285857353045685 24.4440923479726919 31.6374675043083542
 17.1285857353045685 24.4440923479726919 34.5224631715494681
 17.1285857353045685 24.4440923479726919 37.4074588387905820
 17.1285857353045685 24.4440923479726919 40.2924545060316959
 17.1285857353045685 24.4440923479726919 43.1774501732728098
 17.1285857353045685 24.4440923479726919 46.0624458405139237
 17.1285857353045685 24.4440923479726919 48.9474415077550375
 18.0362115550274638 21.6507073046963470 14.3274935008616708
 18.0362115550274638 21.6507073046963470 17.2124891681027847
 18.0362115550274638 21.6507073046963470 20.0974848353438986
 18.0362115550274638 21.6507073046963470 22.9824805025850125
 18.0362115550274638 21.6507073046963470 25.8674761698261264
 18.0362115550274638 21.6507073046963470 28.7524718370672403
 18.0362115550274638 21.6507073046963470 31.6374675043083542
 18.0362115550274638 21.6507073046963470 34.5224631715494681
 18.0362115550274638 21.6507073046963470 37.4074588387905820
 18.0362115550274638 21.6507073046963470 40.2924545060316959
 18.0362115550274638 21.6507073046963470 43.1774501732728098
 18.0362115550274638 21.6507073046963470 46.0624458405139237
 18.0362115550274638 21.6507073046963470 48.9474415077550375
 18.9438373747503590 18.8573222614199985 14.3274935008616708
 18.9438373747503590 18.8573222614199985 17.2124891681027847
 18.9438373747503590 18.8573222614199985 20.0974848353438986
 18.9438373747503590 18.8573222614199985 22.9824805025850125
 18.9438373747503590 18.8573222614199985 25.8674761698261264
 18.9438373747503590 18.8573222614199985 28.7524718370672403
 18.9438373747503590 18.8573222614199985 31.6374675043083542
 18.9438373747503590 18.8573222614199985 34.5224631715494681
 18.9438373747503590 18.8573222614199985 37.4074588387905820
 18.9438373747503590 18.8573222614199985 40.2924545060316959
 18.9438373747503590 18.8573222614199985 43.1774501732728098
 18.9438373747503590 18.8573222614199985 46.0624458405139237
 18.9438373747503590 18.8573222614199985 48.9474415077550375
 19.8514631944732542 16.0639372181436499 14.3274935008616708
 19.8514631944732542 16.0639372181436499 17.2124891681027847
 19.8514631944732542 16.0639372181436499 20.0974848353438986
 19.8514631944732542 16.0639372181436499 22.9824805025850125
 19.8514631944732542 16.0639372181436499 25.8674761698261264
 19.8514631944732542 16.0639372181436499 28.7524718370672403
 19.8514631944732542 16.0639372181436499 31.6374675043083542
 19.8514631944732542 16.0639372181436499 34.5224631715494681
 19.8514631944732542 16.0639372181436499 37.4074588387905820
 19.8514631944732542 16.0639372181436499 40.2924545060316959
 19.8514631944732542 16.0639372181436499 43.1774501732728098
 19.8514631944732542 16.0639372181436499 46.0624458405139237
 19.8514631944732542 16.0639372181436499 48.9474415077550375
 22.7886020452305083 16.0639372181436499 14.3274935008616708
 22.7886020452305083 16.0639372181436499 17.2124891681027847
 22.7886020452305083 16.0639372181436499 20.0974848353438986
 22.7886020452305083 16.0639372181436499 22.9824805025850125
 22.7886020452305083 16.0639372181436499 25.8674761698261264
 22.7886020452305083 16.0639372181436499 28.7524718370672403
 22.7886020452305083 16.0639372181436499 31.6374675043083542
 22.7886020452305083 16.0639372181436499 34.5224631715494681
 22.7886020452305083 16.0639372181436499 37.4074588387905820
 22.7886020452305083 16.0639372181436499 40.2924545060316959
 22.7886020452305083 16.0639372181436499 43.1774501732728098
 22.7886020452305083 16.0639372181436499 46.0624458405139237
 22.7886020452305083 16.0639372181436499 48.9474415077550375
 25.7257408959877623 16.0639372181436499 14.3274935008616708
 25.7257408959877623 16.0639372181436499 17.2124891681027847
 25.7257408959877623 16.0639372181436499 20.0974848353438986
 25.7257408959877623 16.0639372181436499 22.9824805025850125
 25.7257408959877623 16.0639372181436499 25.8674761698261264
 25.7257408959877623 16.0639372181436499 28.7524718370672403
 25.7257408959877623 16.0639372181436499 31.6374675043083542
 25.7257408959877623 16.0639372181436499 34.5224631715494681
 25.7257408959877623 16.0639372181436499 37.4074588387905820
 25.7257408959877623 16.0639372181436499 40.2924545060316959
 25.7257408959877623 16.0639372181436499 43.1774501732728098
 25.7257408959877623 16.0639372181436499 46.0624458405139237
 25.7257408959877623 16.0639372181436499 48.9474415077550375
 28.6628797467450198 16.0639372181436499 14.3274935008616708
 28.6628797467450198 16.0639372181436499 17.2124891681027847
 28.6628797467450198 16.0639372181436499 20.0974848353438986
 28.6628797467450198 16.0639372181436499 22.9824805025850125
 28.6628797467450198 16.0639372181436499 25.8674761698261264
 28.6628797467450198 16.0639372181436499 28.7524718370672403
 28.6628797467450198 16.0639372181436499 31.6374675043083542
 28.6628797467450198 16.0639372181436499 34.5224631715494681
 28.6628797467450198 16.0639372181436499 37.4074588387905820
 28.6628797467450198 16.0639372181436499 40.2924545060316959
 28.6628797467450198 16.0639372181436499 43.1774501732728098
 28.6628797467450198 16.0639372181436499 46.0624458405139237
 28.6628797467450198 16.0639372181436499 48.9474415077550375
 29.5705055664679151 18.8573222614199985 14.3274935008616708
 29.5705055664679151 18.8573222614199985 17.2124891681027847
 29.5705055664679151 18.8573222614199985 20.0974848353438986
 29.5705055664679151 18.8573222614199985 22.9824805025850125
 29.5705055664679151 18.8573222614199985 25.8674761698261264
 29.5705055664679151 18.8573222614199985 28.7524718370672403
 29.5705055664679151 18.8573222614199985 31.6374675043083542
 29.5705055664679151 18.8573222614199985 34.5224631715494681
 29.5705055664679151 18.8573222614199985 37.4074588387905820
 29.5705055664679151 18.8573222614199985 40.2924545060316959
 29.5705055664679151 18.8573222614199985 43.1774501732728098
 29.5705055664679151 18.8573222614199985 46.0624458405139237
 29.5705055664679151 18.8573222614199985 48.9474415077550375
 30.4781313861908103 21.6507073046963434 14.3274935008616708
 30.4781313861908103 21.6507073046963434 17.2124891681027847
 30.4781313861908103 21.6507073046963434 20.0974848353438986
 30.4781313861908103 21.6507073046963434 22.9824805025850125
 30.4781313861908103 21.6507073046963434 25.8674761698261264
 30.4781313861908103 21.6507073046963434 28.7524718370672403
 30.4781313861908103 21.6507073046963434 31.6374675043083542
 30.4781313861908103 21.6507073046963434 34.5224631715494681
 30.4781313861908103 21.6507073046963434 37.4074588387905820
 30.4781313861908103 21.6507073046963434 40.2924545060316959
 30.4781313861908103 21.6507073046963434 43.1774501732728098
 30.4781313861908103 21.6507073046963434 46.0624458405139237
 30.4781313861908103 21.6507073046963434 48.9474415077550375
 33.7619524510152260 25.2161649852011536 15.7699913344822278
 33.7619524510152260 25.2161649852011536 18.6549870017233417
 33.7619524510152260 25.2161649852011536 21.5399826689644556
 33.7619524510152260 25.2161649852011536 24.4249783362055695
 33.7619524510152260 25.2161649852011536 27.3099740034466834
 33.7619524510152260 25.2161649852011536 30.1949696706877972
 33.7619524510152260 25.2161649852011536 33.0799653379289111
 33.7619524510152260 25.2161649852011536 35.9649610051700250
 33.7619524510152260 25.2161649852011536 38.8499566724111389
 33.7619524510152260 25.2161649852011536 41.7349523396522528
 33.7619524510152260 25.2161649852011536 44.6199480068933667
 33.7619524510152260 25.2161649852011536 47.5049436741344806
 31.3857572059137055 26.9425718856115317 15.7699913344822278
 31.3857572059137055 26.9425718856115317 18.6549870017233417
 31.3857572059137055 26.9425718856115317 21.5399826689644556
 31.3857572059137055 26.9425718856115317 24.4249783362055695
 31.3857572059137055 26.9425718856115317 27.3099740034466834
 31.3857572059137055 26.9425718856115317 30.1949696706877972
 31.3857572059137055 26.9425718856115317 33.0799653379289111
 31.3857572059137055 26.9425718856115317 35.9649610051700250
 31.3857572059137055 26.9425718856115317 38.8499566724111389
 31.3857572059137055 26.9425718856115317 41.7349523396522528
 31.3857572059137055 26.9425718856115317 44.6199480068933667
 31.3857572059137055 26.9425718856115317 47.5049436741344806
 29.0095619608121815 28.6689787860219099 15.7699913344822278
 29.0095619608121815 28.6689787860219099 18.6549870017233417
 29.0095619608121815 28.6689787860219099 21.5399826689644556
 29.0095619608121815 28.6689787860219099 24.4249783362055695
 29.0095619608121815 28.6689787860219099 27.3099740034466834
 29.0095619608121815 28.6689787860219099 30.1949696706877972
 29.0095619608121815 28.6689787860219099 33.0799653379289111
 29.0095619608121815 28.6689787860219099 35.9649610051700250
 29.0095619608121815 28.6689787860219099 38.8499566724111389
 29.0095619608121815 28.6689787860219099 41.7349523396522528
 29.0095619608121815 28.6689787860219099 44.6199480068933667
 29.0095619608121815 28.6689787860219099 47.5049436741344806
 26.6333667157106611 30.3953856864322915 15.7699913344822278
 26.6333667157106611 30.3953856864322915 18.6549870017233417
 26.6333667157106611 30.3953856864322915 21.5399826689644556
 26.6333667157106611 30.3953856864322915 24.4249783362055695
 26.6333667157106611 30.3953856864322915 27.3099740034466834
 26.6333667157106611 30.3953856864322915 30.1949696706877972
 26.6333667157106611 30.3953856864322915 33.0799653379289111
 26.6333667157106611 30.3953856864322915 35.9649610051700250
 26.6333667157106611 30.3953856864322915 38.8499566724111389
 26.6333667157106611 30.3953856864322915 41.7349523396522528
 26.6333667157106611 30.3953856864322915 44.6199480068933667
 26.6333667157106611 30.3953856864322915 47.5049436741344806
 24.2571714706091370 32.1217925868426732 15.7699913344822278
 24.2571714706091370 32.1217925868426732 18.6549870017233417
 24.2571714706091370 32.1217925868426732 21.5399826689644556
 24.2571714706091370 32.1217925868426732 24.4249783362055695
 24.2571714706091370 32.1217925868426732 27.3099740034466834
 24.2571714706091370 32.1217925868426732 30.1949696706877972
 24.2571714706091370 32.1217925868426732 33.0799653379289111
 24.2571714706091370 32.1217925868426732 35.9649610051700250
 24.2571714706091370 32.1217925868426732 38.8499566724111389
 24.2571714706091370 32.1217925868426732 41.7349523396522528
 24.2571714706091370 32.1217925868426732 44.6199480068933667
 24.2571714706091370 32.1217925868426732 47.5049436741344806
 21.8809762255076166 30.3953856864322915 15.7699913344822278