Au 
 1.0000000000000000
    40.1314491721236521    0.0000000000000000    0.0000000000000000
     0.0000000000000000   39.1461459176128699    0.0000000000000000
     0.0000000000000000    0.0000000000000000   34.4249783362055695
 Au 
 156
Cartesian
 20.0657245860618261 20.1065620302394166 10.0000000000000000
 20.0657245860618261 20.1065620302394166 12.8849956672411139
 20.0657245860618261 20.1065620302394166 15.7699913344822278
 20.0657245860618261 20.1065620302394166 18.6549870017233417
 20.0657245860618261 20.1065620302394166 21.5399826689644556
 20.0657245860618261 20.1065620302394166 24.4249783362055695
 22.4419198311633501 20.8786346674678782 11.4424978336205569
 22.4419198311633501 20.8786346674678782 14.3274935008616708
 22.4419198311633501 20.8786346674678782 17.2124891681027847
 22.4419198311633501 20.8786346674678782 20.0974848353438986
 22.4419198311633501 20.8786346674678782 22.9824805025850125
 20.0657245860618261 22.6050415678782599 11.4424978336205569
 20.0657245860618261 22.6050415678782599 14.3274935008616708
 20.0657245860618261 22.6050415678782599 17.2124891681027847
 20.0657245860618261 22.6050415678782599 20.0974848353438986
 20.0657245860618261 22.6050415678782599 22.9824805025850125
 17.6895293409603021 20.8786346674678782 11.4424978336205569
 17.6895293409603021 20.8786346674678782 14.3274935008616708
 17.6895293409603021 20.8786346674678782 17.2124891681027847
 17.6895293409603021 20.8786346674678782 20.0974848353438986
 17.6895293409603021 20.8786346674678782 22.9824805025850125
 18.5971551606831973 18.0852496241915333 11.4424978336205569
 18.5971551606831973 18.0852496241915333 14.3274935008616708
 18.5971551606831973 18.0852496241915333 17.2124891681027847
 18.5971551606831973 18.0852496241915333 20.0974848353438986
 18.5971551606831973 18.0852496241915333 22.9824805025850125
 21.5342940114404549 18.0852496241915333 11.4424978336205569
 21.5342940114404549 18.0852496241915333 14.3274935008616708
 21.5342940114404549 18.0852496241915333 17.2124891681027847
 21.5342940114404549 18.0852496241915333 20.0974848353438986
 21.5342940114404549 18.0852496241915333 22.9824805025850125
 24.8181150762648706 21.6507073046963399 12.8849956672411139
 24.8181150762648706 21.6507073046963399 15.7699913344822278
 24.8181150762648706 21.6507073046963399 18.6549870017233417
 24.8181150762648706 21.6507073046963399 21.5399826689644556
 22.4419198311633501 23.3771142051067216 12.8849956672411139
 22.4419198311633501 23.3771142051067216 15.7699913344822278
 22.4419198311633501 23.3771142051067216 18.6549870017233417
 22.4419198311633501 23.3771142051067216 21.5399826689644556
 20.0657245860618261 25.1035211055170997 12.8849956672411139
 20.0657245860618261 25.1035211055170997 15.7699913344822278
 20.0657245860618261 25.1035211055170997 18.6549870017233417
 20.0657245860618261 25.1035211055170997 21.5399826689644556
 17.6895293409603021 23.3771142051067216 12.8849956672411139
 17.6895293409603021 23.3771142051067216 15.7699913344822278
 17.6895293409603021 23.3771142051067216 18.6549870017233417
 17.6895293409603021 23.3771142051067216 21.5399826689644556
 15.3133340958587816 21.6507073046963434 12.8849956672411139
 15.3133340958587816 21.6507073046963434 15.7699913344822278
 15.3133340958587816 21.6507073046963434 18.6549870017233417
 15.3133340958587816 21.6507073046963434 21.5399826689644556
 16.2209599155816733 18.8573222614199949 12.8849956672411139
 16.2209599155816733 18.8573222614199949 15.7699913344822278
 16.2209599155816733 18.8573222614199949 18.6549870017233417
 16.2209599155816733 18.8573222614199949 21.5399826689644556
 17.1285857353045685 16.0639372181436499 12.8849956672411139
 17.1285857353045685 16.0639372181436499 15.7699913344822278
 17.1285857353045685 16.0639372181436499 18.6549870017233417
 17.1285857353045685 16.0639372181436499 21.5399826689644556
 20.0657245860618261 16.0639372181436499 12.8849956672411139
 20.0657245860618261 16.0639372181436499 15.7699913344822278
 20.0657245860618261 16.0639372181436499 18.6549870017233417
 20.0657245860618261 16.0639372181436499 21.5399826689644556
 23.0028634368190801 16.0639372181436499 12.8849956672411139
 23.0028634368190801 16.0639372181436499 15.7699913344822278
 23.0028634368190801 16.0639372181436499 18.6549870017233417
 23.0028634368190801 16.0639372181436499 21.5399826689644556
 23.9104892565419753 18.8573222614199949 12.8849956672411139
 23.9104892565419753 18.8573222614199949 15.7699913344822278
 23.9104892565419753 18.8573222614199949 18.6549870017233417
 23.9104892565419753 18.8573222614199949 21.5399826689644556
 27.1943103213663946 22.4227799419248051 14.3274935008616708
 27.1943103213663946 22.4227799419248051 17.2124891681027847
 27.1943103213663946 22.4227799419248051 20.0974848353438986
 24.8181150762648706 24.1491868423351832 14.3274935008616708
 24.8181150762648706 24.1491868423351832 17.2124891681027847
 24.8181150762648706 24.1491868423351832 20.0974848353438986
 22.4419198311633501 25.8755937427455613 14.3274935008616708
 22.4419198311633501 25.8755937427455613 17.2124891681027847
 22.4419198311633501 25.8755937427455613 20.0974848353438986
 20.0657245860618261 27.6020006431559395 14.3274935008616708
 20.0657245860618261 27.6020006431559395 17.2124891681027847
 20.0657245860618261 27.6020006431559395 20.0974848353438986
 17.6895293409603056 25.8755937427455649 14.3274935008616708
 17.6895293409603056 25.8755937427455649 17.2124891681027847
 17.6895293409603056 25.8755937427455649 20.0974848353438986
 15.3133340958587816 24.1491868423351832 14.3274935008616708
 15.3133340958587816 24.1491868423351832 17.2124891681027847
 15.3133340958587816 24.1491868423351832 20.0974848353438986
 12.9371388507572576 22.4227799419248051 14.3274935008616708
 12.9371388507572576 22.4227799419248051 17.2124891681027847
 12.9371388507572576 22.4227799419248051 20.0974848353438986
 13.8447646704801528 19.6293948986484601 14.3274935008616708
 13.8447646704801528 19.6293948986484601 17.2124891681027847
 13.8447646704801528 19.6293948986484601 20.0974848353438986
 14.7523904902030463 16.8360098553721116 14.3274935008616708
 14.7523904902030463 16.8360098553721116 17.2124891681027847
 14.7523904902030463 16.8360098553721116 20.0974848353438986
 15.6600163099259415 14.0426248120957649 14.3274935008616708
 15.6600163099259415 14.0426248120957649 17.2124891681027847
 15.6600163099259415 14.0426248120957649 20.0974848353438986
 18.5971551606831973 14.0426248120957649 14.3274935008616708
 18.5971551606831973 14.0426248120957649 17.2124891681027847
 18.5971551606831973 14.0426248120957649 20.0974848353438986
 21.5342940114404513 14.0426248120957649 14.3274935008616708
 21.5342940114404513 14.0426248120957649 17.2124891681027847
 21.5342940114404513 14.0426248120957649 20.0974848353438986
 24.4714328621977089 14.0426248120957631 14.3274935008616708
 24.4714328621977089 14.0426248120957631 17.2124891681027847
 24.4714328621977089 14.0426248120957631 20.0974848353438986
 25.3790586819206041 16.8360098553721116 14.3274935008616708
 25.3790586819206041 16.8360098553721116 17.2124891681027847
 25.3790586819206041 16.8360098553721116 20.0974848353438986
 26.2866845016434993 19.6293948986484565 14.3274935008616708
 26.2866845016434993 19.6293948986484565 17.2124891681027847
 26.2866845016434993 19.6293948986484565 20.0974848353438986
 27.1943103213663946 24.9212594795636448 15.7699913344822278
 27.1943103213663946 24.9212594795636448 18.6549870017233417
 24.8181150762648706 26.6476663799740265 15.7699913344822278
 24.8181150762648706 26.6476663799740265 18.6549870017233417
 22.4419198311633501 28.3740732803844047 15.7699913344822278
 22.4419198311633501 28.3740732803844047 18.6549870017233417
 17.6895293409603056 28.3740732803844047 15.7699913344822278
 17.6895293409603056 28.3740732803844047 18.6549870017233417
 15.3133340958587816 26.6476663799740265 15.7699913344822278
 15.3133340958587816 26.6476663799740265 18.6549870017233417
 12.9371388507572576 24.9212594795636484 15.7699913344822278
 12.9371388507572576 24.9212594795636484 18.6549870017233417
 11.4685694253786288 20.4014675358769217 15.7699913344822278
 11.4685694253786288 20.4014675358769217 18.6549870017233417
 12.3761952451015240 17.6080824926005768 15.7699913344822278
 12.3761952451015240 17.6080824926005768 18.6549870017233417
 13.2838210648244193 14.8146974493242283 15.7699913344822278
 13.2838210648244193 14.8146974493242283 18.6549870017233417
 17.1285857353045685 12.0213124060478798 15.7699913344822278
 17.1285857353045685 12.0213124060478798 18.6549870017233417
 20.0657245860618261 12.0213124060478798 15.7699913344822278
 20.0657245860618261 12.0213124060478798 18.6549870017233417
 23.0028634368190801 12.0213124060478798 15.7699913344822278
 23.0028634368190801 12.0213124060478798 18.6549870017233417
 26.8476281072992293 14.8146974493242265 15.7699913344822278
 26.8476281072992293 14.8146974493242265 18.6549870017233417
 27.7552539270221246 17.6080824926005732 15.7699913344822278
 27.7552539270221246 17.6080824926005732 18.6549870017233417
 28.6628797467450198 20.4014675358769182 15.7699913344822278
 28.6628797467450198 20.4014675358769182 18.6549870017233417
 27.1943103213663946 27.4197390172024882 17.2124891681027847
 24.8181150762648741 29.1461459176128663 17.2124891681027847
 15.3133340958587816 29.1461459176128699 17.2124891681027847
 12.9371388507572576 27.4197390172024882 17.2124891681027847
 10.0000000000000000 18.3801551298290384 17.2124891681027847
 10.9076258197228952 15.5867700865526917 17.2124891681027847
 18.5971551606831973  9.9999999999999964 17.2124891681027847
 21.5342940114404513  9.9999999999999964 17.2124891681027847
 29.2238233524007534 15.5867700865526899 17.2124891681027847
 30.1314491721236521 18.3801551298290349 17.2124891681027847
