Au 
 1.0000000000000000
    68.9600000000000080    0.0000000000000000    0.0000000000000000
     0.0000000000000000   68.9600000000000080    0.0000000000000000
     0.0000000000000000    0.0000000000000000   68.9600000000000080
 Au 
 1469
Cartesian
 12.0400000000000027 32.4399999999999977 34.4800000000000040
 12.0400000000000027 34.4800000000000040 32.4399999999999977
 10.0000000000000036 34.4800000000000040 34.4800000000000040
 12.0400000000000027 34.4800000000000040 36.5200000000000031
 12.0400000000000027 36.5200000000000031 34.4800000000000040
 16.1200000000000045 28.3600000000000030 34.4800000000000040
 14.0800000000000054 32.4399999999999977 32.4399999999999977
 16.1200000000000045 30.4000000000000021 32.4399999999999977
 16.1200000000000045 32.4399999999999977 30.4000000000000021
 14.0800000000000054 30.4000000000000021 34.4800000000000040
 14.0800000000000054 32.4399999999999977 36.5200000000000031
 16.1200000000000045 30.4000000000000021 36.5200000000000031
 16.1200000000000045 32.4399999999999977 34.4800000000000040
 16.1200000000000045 32.4399999999999977 38.5600000000000023
 16.1200000000000045 34.4800000000000040 28.3600000000000030
 14.0800000000000054 34.4800000000000040 30.4000000000000021
 14.0800000000000054 36.5200000000000031 32.4399999999999977
 16.1200000000000045 34.4800000000000040 32.4399999999999977
 16.1200000000000045 36.5200000000000031 30.4000000000000021
 14.0800000000000054 34.4800000000000040 34.4800000000000040
 14.0800000000000054 36.5200000000000031 36.5200000000000031
 16.1200000000000045 34.4800000000000040 36.5200000000000031
 16.1200000000000045 36.5200000000000031 34.4800000000000040
 14.0800000000000054 34.4800000000000040 38.5600000000000023
 16.1200000000000045 34.4800000000000040 40.6000000000000085
 16.1200000000000045 36.5200000000000031 38.5600000000000023
 16.1200000000000045 38.5600000000000023 32.4399999999999977
 14.0800000000000054 38.5600000000000023 34.4800000000000040
 16.1200000000000045 38.5600000000000023 36.5200000000000031
 16.1200000000000045 40.6000000000000085 34.4800000000000040
 20.2000000000000028 24.2800000000000047 34.4800000000000040
 18.1600000000000037 28.3600000000000030 32.4399999999999977
 20.2000000000000028 26.3200000000000038 32.4399999999999977
 20.2000000000000028 28.3600000000000030 30.4000000000000021
 18.1600000000000037 26.3200000000000038 34.4800000000000040
 18.1600000000000037 28.3600000000000030 36.5200000000000031
 20.2000000000000028 26.3200000000000038 36.5200000000000031
 20.2000000000000028 28.3600000000000030 34.4800000000000040
 20.2000000000000028 28.3600000000000030 38.5600000000000023
 18.1600000000000037 32.4399999999999977 28.3600000000000030
 20.2000000000000028 30.4000000000000021 28.3600000000000030
 20.2000000000000028 32.4399999999999977 26.3200000000000038
 18.1600000000000037 30.4000000000000021 30.4000000000000021
 18.1600000000000037 32.4399999999999977 32.4399999999999977
 20.2000000000000028 30.4000000000000021 32.4399999999999977
 20.2000000000000028 32.4399999999999977 30.4000000000000021
 18.1600000000000037 30.4000000000000021 34.4800000000000040
 18.1600000000000037 32.4399999999999977 36.5200000000000031
 20.2000000000000028 30.4000000000000021 36.5200000000000031
 20.2000000000000028 32.4399999999999977 34.4800000000000040
 18.1600000000000037 30.4000000000000021 38.5600000000000023
 18.1600000000000037 32.4399999999999977 40.6000000000000085
 20.2000000000000028 30.4000000000000021 40.6000000000000085
 20.2000000000000028 32.4399999999999977 38.5600000000000023
 20.2000000000000028 32.4399999999999977 42.6400000000000006
 20.2000000000000028 34.4800000000000040 24.2800000000000047
 18.1600000000000037 34.4800000000000040 26.3200000000000038
 18.1600000000000037 36.5200000000000031 28.3600000000000030
 20.2000000000000028 34.4800000000000040 28.3600000000000030
 20.2000000000000028 36.5200000000000031 26.3200000000000038
 18.1600000000000037 34.4800000000000040 30.4000000000000021
 18.1600000000000037 36.5200000000000031 32.4399999999999977
 20.2000000000000028 34.4800000000000040 32.4399999999999977
 20.2000000000000028 36.5200000000000031 30.4000000000000021
 18.1600000000000037 34.4800000000000040 34.4800000000000040
 18.1600000000000037 36.5200000000000031 36.5200000000000031
 20.2000000000000028 34.4800000000000040 36.5200000000000031
 20.2000000000000028 36.5200000000000031 34.4800000000000040
 18.1600000000000037 34.4800000000000040 38.5600000000000023
 18.1600000000000037 36.5200000000000031 40.6000000000000085
 20.2000000000000028 34.4800000000000040 40.6000000000000085
 20.2000000000000028 36.5200000000000031 38.5600000000000023
 18.1600000000000037 34.4800000000000040 42.6400000000000006
 20.2000000000000028 34.4800000000000040 44.6800000000000068
 20.2000000000000028 36.5200000000000031 42.6400000000000006
 20.2000000000000028 38.5600000000000023 28.3600000000000030
 18.1600000000000037 38.5600000000000023 30.4000000000000021
 18.1600000000000037 40.6000000000000085 32.4399999999999977
 20.2000000000000028 38.5600000000000023 32.4399999999999977
 20.2000000000000028 40.6000000000000085 30.4000000000000021
 18.1600000000000037 38.5600000000000023 34.4800000000000040
 18.1600000000000037 40.6000000000000085 36.5200000000000031
 20.2000000000000028 38.5600000000000023 36.5200000000000031
 20.2000000000000028 40.6000000000000085 34.4800000000000040
 18.1600000000000037 38.5600000000000023 38.5600000000000023
 20.2000000000000028 38.5600000000000023 40.6000000000000085
 20.2000000000000028 40.6000000000000085 38.5600000000000023
 20.2000000000000028 42.6400000000000006 32.4399999999999977
 18.1600000000000037 42.6400000000000006 34.4800000000000040
 20.2000000000000028 42.6400000000000006 36.5200000000000031
 20.2000000000000028 44.6800000000000068 34.4800000000000040
 24.2800000000000047 20.2000000000000028 34.4800000000000040
 22.2400000000000020 24.2800000000000047 32.4399999999999977
 24.2800000000000047 22.2400000000000020 32.4399999999999977
 24.2800000000000047 24.2800000000000047 30.4000000000000021
 22.2400000000000020 22.2400000000000020 34.4800000000000040
 22.2400000000000020 24.2800000000000047 36.5200000000000031
 24.2800000000000047 22.2400000000000020 36.5200000000000031
 24.2800000000000047 24.2800000000000047 34.4800000000000040
 24.2800000000000047 24.2800000000000047 38.5600000000000023
 22.2400000000000020 28.3600000000000030 28.3600000000000030
 24.2800000000000047 26.3200000000000038 28.3600000000000030
 24.2800000000000047 28.3600000000000030 26.3200000000000038
 22.2400000000000020 26.3200000000000038 30.4000000000000021
 22.2400000000000020 28.3600000000000030 32.4399999999999977
 24.2800000000000047 26.3200000000000038 32.4399999999999977
 24.2800000000000047 28.3600000000000030 30.4000000000000021
 22.2400000000000020 26.3200000000000038 34.4800000000000040
 22.2400000000000020 28.3600000000000030 36.5200000000000031
 24.2800000000000047 26.3200000000000038 36.5200000000000031
 24.2800000000000047 28.3600000000000030 34.4800000000000040
 22.2400000000000020 26.3200000000000038 38.5600000000000023
 22.2400000000000020 28.3600000000000030 40.6000000000000085
 24.2800000000000047 26.3200000000000038 40.6000000000000085
 24.2800000000000047 28.3600000000000030 38.5600000000000023
 24.2800000000000047 28.3600000000000030 42.6400000000000006
 22.2400000000000020 32.4399999999999977 24.2800000000000047
 24.2800000000000047 30.4000000000000021 24.2800000000000047
 24.2800000000000047 32.4399999999999977 22.2400000000000020
 22.2400000000000020 30.4000000000000021 26.3200000000000038
 22.2400000000000020 32.4399999999999977 28.3600000000000030
 24.2800000000000047 30.4000000000000021 28.3600000000000030
 24.2800000000000047 32.4399999999999977 26.3200000000000038
 22.2400000000000020 30.4000000000000021 30.4000000000000021
 22.2400000000000020 32.4399999999999977 32.4399999999999977
 24.2800000000000047 30.4000000000000021 32.4399999999999977
 24.2800000000000047 32.4399999999999977 30.4000000000000021
 22.2400000000000020 30.4000000000000021 34.4800000000000040
 22.2400000000000020 32.4399999999999977 36.5200000000000031
 24.2800000000000047 30.4000000000000021 36.5200000000000031
 24.2800000000000047 32.4399999999999977 34.4800000000000040
 22.2400000000000020 30.4000000000000021 38.5600000000000023
 22.2400000000000020 32.4399999999999977 40.6000000000000085
 24.2800000000000047 30.4000000000000021 40.6000000000000085
 24.2800000000000047 32.4399999999999977 38.5600000000000023
 22.2400000000000020 30.4000000000000021 42.6400000000000006
 22.2400000000000020 32.4399999999999977 44.6800000000000068
 24.2800000000000047 30.4000000000000021 44.6800000000000068
 24.2800000000000047 32.4399999999999977 42.6400000000000006
 24.2800000000000047 32.4399999999999977 46.7199999999999989
 24.2800000000000047 34.4800000000000040 20.2000000000000028
 22.2400000000000020 34.4800000000000040 22.2400000000000020
 22.2400000000000020 36.5200000000000031 24.2800000000000047
 24.2800000000000047 34.4800000000000040 24.2800000000000047
 24.2800000000000047 36.5200000000000031 22.2400000000000020
 22.2400000000000020 34.4800000000000040 26.3200000000000038
 22.2400000000000020 36.5200000000000031 28.3600000000000030
 24.2800000000000047 34.4800000000000040 28.3600000000000030
 24.2800000000000047 36.5200000000000031 26.3200000000000038
 22.2400000000000020 34.4800000000000040 30.4000000000000021
 22.2400000000000020 36.5200000000000031 32.4399999999999977
 24.2800000000000047 34.4800000000000040 32.4399999999999977
 24.2800000000000047 36.5200000000000031 30.4000000000000021
 22.2400000000000020 34.4800000000000040 34.4800000000000040
 22.2400000000000020 36.5200000000000031 36.5200000000000031
 24.2800000000000047 34.4800000000000040 36.5200000000000031
 24.2800000000000047 36.5200000000000031 34.4800000000000040
 22.2400000000000020 34.4800000000000040 38.5600000000000023
 22.2400000000000020 36.5200000000000031 40.6000000000000085
 24.2800000000000047 34.4800000000000040 40.6000000000000085
 24.2800000000000047 36.5200000000000031 38.5600000000000023
 22.2400000000000020 34.4800000000000040 42.6400000000000006
 22.2400000000000020 36.5200000000000031 44.6800000000000068
 24.2800000000000047 34.4800000000000040 44.6800000000000068
 24.2800000000000047 36.5200000000000031 42.6400000000000006
 22.2400000000000020 34.4800000000000040 46.7199999999999989
 24.2800000000000047 34.4800000000000040 48.7600000000000051
 24.2800000000000047 36.5200000000000031 46.7199999999999989
 24.2800000000000047 38.5600000000000023 24.2800000000000047
 22.2400000000000020 38.5600000000000023 26.3200000000000038
 22.2400000000000020 40.6000000000000085 28.3600000000000030
 24.2800000000000047 38.5600000000000023 28.3600000000000030
 24.2800000000000047 40.6000000000000085 26.3200000000000038
 22.2400000000000020 38.5600000000000023 30.4000000000000021
 22.2400000000000020 40.6000000000000085 32.4399999999999977
 24.2800000000000047 38.5600000000000023 32.4399999999999977
 24.2800000000000047 40.6000000000000085 30.4000000000000021
 22.2400000000000020 38.5600000000000023 34.4800000000000040
 22.2400000000000020 40.6000000000000085 36.5200000000000031
 24.2800000000000047 38.5600000000000023 36.5200000000000031
 24.2800000000000047 40.6000000000000085 34.4800000000000040
 22.2400000000000020 38.5600000000000023 38.5600000000000023
 22.2400000000000020 40.6000000000000085 40.6000000000000085
 24.2800000000000047 38.5600000000000023 40.6000000000000085
 24.2800000000000047 40.6000000000000085 38.5600000000000023
 22.2400000000000020 38.5600000000000023 42.6400000000000006
 24.2800000000000047 38.5600000000000023 44.6800000000000068
 24.2800000000000047 40.6000000000000085 42.6400000000000006
 24.2800000000000047 42.6400000000000006 28.3600000000000030
 22.2400000000000020 42.6400000000000006 30.4000000000000021
 22.2400000000000020 44.6800000000000068 32.4399999999999977
 24.2800000000000047 42.6400000000000006 32.4399999999999977
 24.2800000000000047 44.6800000000000068 30.4000000000000021
 22.2400000000000020 42.6400000000000006 34.4800000000000040
 22.2400000000000020 44.6800000000000068 36.5200000000000031
 24.2800000000000047 42.6400000000000006 36.5200000000000031
 24.2800000000000047 44.6800000000000068 34.4800000000000040
 22.2400000000000020 42.6400000000000006 38.5600000000000023
 24.2800000000000047 42.6400000000000006 40.6000000000000085
 24.2800000000000047 44.6800000000000068 38.5600000000000023
 24.2800000000000047 46.7199999999999989 32.4399999999999977
 22.2400000000000020 46.7199999999999989 34.4800000000000040
 24.2800000000000047 46.7199999999999989 36.5200000000000031
 24.2800000000000047 48.7600000000000051 34.4800000000000040
 28.3600000000000030 16.1200000000000045 34.4800000000000040
 26.3200000000000038 20.2000000000000028 32.4399999999999977
 28.3600000000000030 18.1600000000000037 32.4399999999999977
 28.3600000000000030 20.2000000000000028 30.4000000000000021
 26.3200000000000038 18.1600000000000037 34.4800000000000040
 26.3200000000000038 20.2000000000000028 36.5200000000000031
 28.3600000000000030 18.1600000000000037 36.5200000000000031
 28.3600000000000030 20.2000000000000028 34.4800000000000040
 28.3600000000000030 20.2000000000000028 38.5600000000000023
 26.3200000000000038 24.2800000000000047 28.3600000000000030
 28.3600000000000030 22.2400000000000020 28.3600000000000030
 28.3600000000000030 24.2800000000000047 26.3200000000000038
 26.3200000000000038 22.2400000000000020 30.4000000000000021
 26.3200000000000038 24.2800000000000047 32.4399999999999977
 28.3600000000000030 22.2400000000000020 32.4399999999999977
 28.3600000000000030 24.2800000000000047 30.4000000000000021
 26.3200000000000038 22.2400000000000020 34.4800000000000040
 26.3200000000000038 24.2800000000000047 36.5200000000000031
 28.3600000000000030 22.2400000000000020 36.5200000000000031
 28.3600000000000030 24.2800000000000047 34.4800000000000040
 26.3200000000000038 22.2400000000000020 38.5600000000000023
 26.3200000000000038 24.2800000000000047 40.6000000000000085
 28.3600000000000030 22.2400000000000020 40.6000000000000085
 28.3600000000000030 24.2800000000000047 38.5600000000000023
 28.3600000000000030 24.2800000000000047 42.6400000000000006
 26.3200000000000038 28.3600000000000030 24.2800000000000047
 28.3600000000000030 26.3200000000000038 24.2800000000000047
 28.3600000000000030 28.3600000000000030 22.2400000000000020
 26.3200000000000038 26.3200000000000038 26.3200000000000038
 26.3200000000000038 28.3600000000000030 28.3600000000000030
 28.3600000000000030 26.3200000000000038 28.3600000000000030
 28.3600000000000030 28.3600000000000030 26.3200000000000038
 26.3200000000000038 26.3200000000000038 30.4000000000000021
 26.3200000000000038 28.3600000000000030 32.4399999999999977
 28.3600000000000030 26.3200000000000038 32.4399999999999977
 28.3600000000000030 28.3600000000000030 30.4000000000000021
 26.3200000000000038 26.3200000000000038 34.4800000000000040
 26.3200000000000038 28.3600000000000030 36.5200000000000031
 28.3600000000000030 26.3200000000000038 36.5200000000000031
 28.3600000000000030 28.3600000000000030 34.4800000000000040
 26.3200000000000038 26.3200000000000038 38.5600000000000023
 26.3200000000000038 28.3600000000000030 40.6000000000000085
 28.3600000000000030 26.3200000000000038 40.6000000000000085
 28.3600000000000030 28.3600000000000030 38.5600000000000023
 26.3200000000000038 26.3200000000000038 42.6400000000000006
 26.3200000000000038 28.3600000000000030 44.6800000000000068
 28.3600000000000030 26.3200000000000038 44.6800000000000068
 28.3600000000000030 28.3600000000000030 42.6400000000000006
 28.3600000000000030 28.3600000000000030 46.7199999999999989
 26.3200000000000038 32.4399999999999977 20.2000000000000028
 28.3600000000000030 30.4000000000000021 20.2000000000000028
 28.3600000000000030 32.4399999999999977 18.1600000000000037
 26.3200000000000038 30.4000000000000021 22.2400000000000020
 26.3200000000000038 32.4399999999999977 24.2800000000000047
 28.3600000000000030 30.4000000000000021 24.2800000000000047
 28.3600000000000030 32.4399999999999977 22.2400000000000020
 26.3200000000000038 30.4000000000000021 26.3200000000000038
 26.3200000000000038 32.4399999999999977 28.3600000000000030
 28.3600000000000030 30.4000000000000021 28.3600000000000030
 28.3600000000000030 32.4399999999999977 26.3200000000000038
 26.3200000000000038 30.4000000000000021 30.4000000000000021
 26.3200000000000038 32.4399999999999977 32.4399999999999977
 28.3600000000000030 30.4000000000000021 32.4399999999999977
 28.3600000000000030 32.4399999999999977 30.4000000000000021
 26.3200000000000038 30.4000000000000021 34.4800000000000040
 26.3200000000000038 32.4399999999999977 36.5200000000000031
 28.3600000000000030 30.4000000000000021 36.5200000000000031
 28.3600000000000030 32.4399999999999977 34.4800000000000040
 26.3200000000000038 30.4000000000000021 38.5600000000000023
 26.3200000000000038 32.4399999999999977 40.6000000000000085
 28.3600000000000030 30.4000000000000021 40.6000000000000085
 28.3600000000000030 32.4399999999999977 38.5600000000000023
 26.3200000000000038 30.4000000000000021 42.6400000000000006
 26.3200000000000038 32.4399999999999977 44.6800000000000068
 28.3600000000000030 30.4000000000000021 44.6800000000000068
 28.3600000000000030 32.4399999999999977 42.6400000000000006
 26.3200000000000038 30.4000000000000021 46.7199999999999989
 26.3200000000000038 32.4399999999999977 48.7600000000000051
 28.3600000000000030 30.4000000000000021 48.7600000000000051
 28.3600000000000030 32.4399999999999977 46.7199999999999989
 28.3600000000000030 32.4399999999999977 50.7999999999999972
 28.3600000000000030 34.4800000000000040 16.1200000000000045
 26.3200000000000038 34.4800000000000040 18.1600000000000037
 26.3200000000000038 36.5200000000000031 20.2000000000000028
 28.3600000000000030 34.4800000000000040 20.2000000000000028
 28.3600000000000030 36.5200000000000031 18.1600000000000037
 26.3200000000000038 34.4800000000000040 22.2400000000000020
 26.3200000000000038 36.5200000000000031 24.2800000000000047
 28.3600000000000030 34.4800000000000040 24.2800000000000047
 28.3600000000000030 36.5200000000000031 22.2400000000000020
 26.3200000000000038 34.4800000000000040 26.3200000000000038
 26.3200000000000038 36.5200000000000031 28.3600000000000030
 28.3600000000000030 34.4800000000000040 28.3600000000000030
 28.3600000000000030 36.5200000000000031 26.3200000000000038
 26.3200000000000038 34.4800000000000040 30.4000000000000021
 26.3200000000000038 36.5200000000000031 32.4399999999999977
 28.3600000000000030 34.4800000000000040 32.4399999999999977
 28.3600000000000030 36.5200000000000031 30.4000000000000021
 26.3200000000000038 34.4800000000000040 34.4800000000000040
 26.3200000000000038 36.5200000000000031 36.5200000000000031
 28.3600000000000030 34.4800000000000040 36.5200000000000031
 28.3600000000000030 36.5200000000000031 34.4800000000000040
 26.3200000000000038 34.4800000000000040 38.5600000000000023
 26.3200000000000038 36.5200000000000031 40.6000000000000085
 28.3600000000000030 34.4800000000000040 40.6000000000000085
 28.3600000000000030 36.5200000000000031 38.5600000000000023
 26.3200000000000038 34.4800000000000040 42.6400000000000006
 26.3200000000000038 36.5200000000000031 44.6800000000000068
 28.3600000000000030 34.4800000000000040 44.6800000000000068
 28.3600000000000030 36.5200000000000031 42.6400000000000006
 26.3200000000000038 34.4800000000000040 46.7199999999999989
 26.3200000000000038 36.5200000000000031 48.7600000000000051
 28.3600000000000030 34.4800000000000040 48.7600000000000051
 28.3600000000000030 36.5200000000000031 46.7199999999999989
 26.3200000000000038 34.4800000000000040 50.7999999999999972
 28.3600000000000030 34.4800000000000040 52.8400000000000034
 28.3600000000000030 36.5200000000000031 50.7999999999999972
 28.3600000000000030 38.5600000000000023 20.2000000000000028
 26.3200000000000038 38.5600000000000023 22.2400000000000020
 26.3200000000000038 40.6000000000000085 24.2800000000000047
 28.3600000000000030 38.5600000000000023 24.2800000000000047
 28.3600000000000030 40.6000000000000085 22.2400000000000020
 26.3200000000000038 38.5600000000000023 26.3200000000000038
 26.3200000000000038 40.6000000000000085 28.3600000000000030
 28.3600000000000030 38.5600000000000023 28.3600000000000030
 28.3600000000000030 40.6000000000000085 26.3200000000000038
 26.3200000000000038 38.5600000000000023 30.4000000000000021
 26.3200000000000038 40.6000000000000085 32.4399999999999977
 28.3600000000000030 38.5600000000000023 32.4399999999999977
 28.3600000000000030 40.6000000000000085 30.4000000000000021
 26.3200000000000038 38.5600000000000023 34.4800000000000040
 26.3200000000000038 40.6000000000000085 36.5200000000000031
 28.3600000000000030 38.5600000000000023 36.5200000000000031
 28.3600000000000030 40.6000000000000085 34.4800000000000040
 26.3200000000000038 38.5600000000000023 38.5600000000000023
 26.3200000000000038 40.6000000000000085 40.6000000000000085
 28.3600000000000030 38.5600000000000023 40.6000000000000085
 28.3600000000000030 40.6000000000000085 38.5600000000000023
 26.3200000000000038 38.5600000000000023 42.6400000000000006
 26.3200000000000038 40.6000000000000085 44.6800000000000068
 28.3600000000000030 38.5600000000000023 44.6800000000000068
 28.3600000000000030 40.6000000000000085 42.6400000000000006
 26.3200000000000038 38.5600000000000023 46.7199999999999989
 28.3600000000000030 38.5600000000000023 48.7600000000000051
 28.3600000000000030 40.6000000000000085 46.7199999999999989
 28.3600000000000030 42.6400000000000006 24.2800000000000047
 26.3200000000000038 42.6400000000000006 26.3200000000000038
 26.3200000000000038 44.6800000000000068 28.3600000000000030
 28.3600000000000030 42.6400000000000006 28.3600000000000030
 28.3600000000000030 44.6800000000000068 26.3200000000000038
 26.3200000000000038 42.6400000000000006 30.4000000000000021
 26.3200000000000038 44.6800000000000068 32.4399999999999977
 28.3600000000000030 42.6400000000000006 32.4399999999999977
 28.3600000000000030 44.6800000000000068 30.4000000000000021
 26.3200000000000038 42.6400000000000006 34.4800000000000040
 26.3200000000000038 44.6800000000000068 36.5200000000000031
 28.3600000000000030 42.6400000000000006 36.5200000000000031
 28.3600000000000030 44.6800000000000068 34.4800000000000040
 26.3200000000000038 42.6400000000000006 38.5600000000000023
 26.3200000000000038 44.6800000000000068 40.6000000000000085
 28.3600000000000030 42.6400000000000006 40.6000000000000085
 28.3600000000000030 44.6800000000000068 38.5600000000000023
 26.3200000000000038 42.6400000000000006 42.6400000000000006
 28.3600000000000030 42.6400000000000006 44.6800000000000068
 28.3600000000000030 44.6800000000000068 42.6400000000000006
 28.3600000000000030 46.7199999999999989 28.3600000000000030
 26.3200000000000038 46.7199999999999989 30.4000000000000021
 26.3200000000000038 48.7600000000000051 32.4399999999999977
 28.3600000000000030 46.7199999999999989 32.4399999999999977
 28.3600000000000030 48.7600000000000051 30.4000000000000021
 26.3200000000000038 46.7199999999999989 34.4800000000000040
 26.3200000000000038 48.7600000000000051 36.5200000000000031
 28.3600000000000030 46.7199999999999989 36.5200000000000031
 28.3600000000000030 48.7600000000000051 34.4800000000000040
 26.3200000000000038 46.7199999999999989 38.5600000000000023
 28.3600000000000030 46.7199999999999989 40.6000000000000085
 28.3600000000000030 48.7600000000000051 38.5600000000000023
 28.3600000000000030 50.7999999999999972 32.4399999999999977
 26.3200000000000038 50.7999999999999972 34.4800000000000040
 28.3600000000000030 50.7999999999999972 36.5200000000000031
 28.3600000000000030 52.8400000000000034 34.4800000000000040
 32.4399999999999977 12.0400000000000027 34.4800000000000040
 30.4000000000000021 16.1200000000000045 32.4399999999999977
 32.4399999999999977 14.0800000000000054 32.4399999999999977
 32.4399999999999977 16.1200000000000045 30.4000000000000021
 30.4000000000000021 14.0800000000000054 34.4800000000000040
 30.4000000000000021 16.1200000000000045 36.5200000000000031
 32.4399999999999977 14.0800000000000054 36.5200000000000031
 32.4399999999999977 16.1200000000000045 34.4800000000000040
 32.4399999999999977 16.1200000000000045 38.5600000000000023
 30.4000000000000021 20.2000000000000028 28.3600000000000030
 32.4399999999999977 18.1600000000000037 28.3600000000000030
 32.4399999999999977 20.2000000000000028 26.3200000000000038
 30.4000000000000021 18.1600000000000037 30.4000000000000021
 30.4000000000000021 20.2000000000000028 32.4399999999999977
 32.4399999999999977 18.1600000000000037 32.4399999999999977
 32.4399999999999977 20.2000000000000028 30.4000000000000021
 30.4000000000000021 18.1600000000000037 34.4800000000000040
 30.4000000000000021 20.2000000000000028 36.5200000000000031
 32.4399999999999977 18.1600000000000037 36.5200000000000031
 32.4399999999999977 20.2000000000000028 34.4800000000000040
 30.4000000000000021 18.1600000000000037 38.5600000000000023
 30.4000000000000021 20.2000000000000028 40.6000000000000085
 32.4399999999999977 18.1600000000000037 40.6000000000000085
 32.4399999999999977 20.2000000000000028 38.5600000000000023
 32.4399999999999977 20.2000000000000028 42.6400000000000006
 30.4000000000000021 24.2800000000000047 24.2800000000000047
 32.4399999999999977 22.2400000000000020 24.2800000000000047
 32.4399999999999977 24.2800000000000047 22.2400000000000020
 30.4000000000000021 22.2400000000000020 26.3200000000000038
 30.4000000000000021 24.2800000000000047 28.3600000000000030
 32.4399999999999977 22.2400000000000020 28.3600000000000030
 32.4399999999999977 24.2800000000000047 26.3200000000000038
 30.4000000000000021 22.2400000000000020 30.4000000000000021
 30.4000000000000021 24.2800000000000047 32.4399999999999977
 32.4399999999999977 22.2400000000000020 32.4399999999999977
 32.4399999999999977 24.2800000000000047 30.4000000000000021
 30.4000000000000021 22.2400000000000020 34.4800000000000040
 30.4000000000000021 24.2800000000000047 36.5200000000000031
 32.4399999999999977 22.2400000000000020 36.5200000000000031
 32.4399999999999977 24.2800000000000047 34.4800000000000040
 30.4000000000000021 22.2400000000000020 38.5600000000000023
 30.4000000000000021 24.2800000000000047 40.6000000000000085
 32.4399999999999977 22.2400000000000020 40.6000000000000085
 32.4399999999999977 24.2800000000000047 38.5600000000000023
 30.4000000000000021 22.2400000000000020 42.6400000000000006
 30.4000000000000021 24.2800000000000047 44.6800000000000068
 32.4399999999999977 22.2400000000000020 44.6800000000000068
 32.4399999999999977 24.2800000000000047 42.6400000000000006
 32.4399999999999977 24.2800000000000047 46.7199999999999989
 30.4000000000000021 28.3600000000000030 20.2000000000000028
 32.4399999999999977 26.3200000000000038 20.2000000000000028
 32.4399999999999977 28.3600000000000030 18.1600000000000037
 30.4000000000000021 26.3200000000000038 22.2400000000000020
 30.4000000000000021 28.3600000000000030 24.2800000000000047
 32.4399999999999977 26.3200000000000038 24.2800000000000047
 32.4399999999999977 28.3600000000000030 22.2400000000000020
 30.4000000000000021 26.3200000000000038 26.3200000000000038
 30.4000000000000021 28.3600000000000030 28.3600000000000030
 32.4399999999999977 26.3200000000000038 28.3600000000000030
 32.4399999999999977 28.3600000000000030 26.3200000000000038
 30.4000000000000021 26.3200000000000038 30.4000000000000021
 30.4000000000000021 28.3600000000000030 32.4399999999999977
 32.4399999999999977 26.3200000000000038 32.4399999999999977
 32.4399999999999977 28.3600000000000030 30.4000000000000021
 30.4000000000000021 26.3200000000000038 34.4800000000000040
 30.4000000000000021 28.3600000000000030 36.5200000000000031
 32.4399999999999977 26.3200000000000038 36.5200000000000031
 32.4399999999999977 28.3600000000000030 34.4800000000000040
 30.4000000000000021 26.3200000000000038 38.5600000000000023
 30.4000000000000021 28.3600000000000030 40.6000000000000085
 32.4399999999999977 26.3200000000000038 40.6000000000000085
 32.4399999999999977 28.3600000000000030 38.5600000000000023
 30.4000000000000021 26.3200000000000038 42.6400000000000006
 30.4000000000000021 28.3600000000000030 44.6800000000000068
 32.4399999999999977 26.3200000000000038 44.6800000000000068
 32.4399999999999977 28.3600000000000030 42.6400000000000006
 30.4000000000000021 26.3200000000000038 46.7199999999999989
 30.4000000000000021 28.3600000000000030 48.7600000000000051
 32.4399999999999977 26.3200000000000038 48.7600000000000051
 32.4399999999999977 28.3600000000000030 46.7199999999999989
 32.4399999999999977 28.3600000000000030 50.7999999999999972
 30.4000000000000021 32.4399999999999977 16.1200000000000045
 32.4399999999999977 30.4000000000000021 16.1200000000000045
 32.4399999999999977 32.4399999999999977 14.0800000000000054
 30.4000000000000021 30.4000000000000021 18.1600000000000037
 30.4000000000000021 32.4399999999999977 20.2000000000000028
 32.4399999999999977 30.4000000000000021 20.2000000000000028
 32.4399999999999977 32.4399999999999977 18.1600000000000037
 30.4000000000000021 30.4000000000000021 22.2400000000000020
 30.4000000000000021 32.4399999999999977 24.2800000000000047
 32.4399999999999977 30.4000000000000021 24.2800000000000047
 32.4399999999999977 32.4399999999999977 22.2400000000000020
 30.4000000000000021 30.4000000000000021 26.3200000000000038
 30.4000000000000021 32.4399999999999977 28.3600000000000030
 32.4399999999999977 30.4000000000000021 28.3600000000000030
 32.4399999999999977 32.4399999999999977 26.3200000000000038
 30.4000000000000021 30.4000000000000021 30.4000000000000021
 30.4000000000000021 32.4399999999999977 32.4399999999999977
 32.4399999999999977 30.4000000000000021 32.4399999999999977
 32.4399999999999977 32.4399999999999977 30.4000000000000021
 30.4000000000000021 30.4000000000000021 34.4800000000000040
 30.4000000000000021 32.4399999999999977 36.5200000000000031