Au 
 1.0000000000000000
    40.3999999999999986    0.0000000000000000    0.0000000000000000
     0.0000000000000000   40.3999999999999986    0.0000000000000000
     0.0000000000000000    0.0000000000000000   40.3999999999999986
 Au 
 225
Cartesian
 10.0000000000000000 18.1600000000000001 20.2000000000000028
 10.0000000000000000 20.2000000000000028 18.1600000000000001
 10.0000000000000000 20.2000000000000028 22.2400000000000020
 10.0000000000000000 22.2400000000000020 20.2000000000000028
 14.0800000000000018 14.0800000000000018 20.2000000000000028
 12.0400000000000009 18.1600000000000001 18.1600000000000001
 14.0800000000000018 16.1200000000000010 18.1600000000000001
 14.0800000000000018 18.1600000000000001 16.1200000000000010
 12.0400000000000009 16.1200000000000010 20.2000000000000028
 12.0400000000000009 18.1600000000000001 22.2400000000000020
 14.0800000000000018 16.1200000000000010 22.2400000000000020
 14.0800000000000018 18.1600000000000001 20.2000000000000028
 14.0800000000000018 18.1600000000000001 24.2800000000000011
 14.0800000000000018 20.2000000000000028 14.0800000000000018
 12.0400000000000009 20.2000000000000028 16.1200000000000010
 12.0400000000000009 22.2400000000000020 18.1600000000000001
 14.0800000000000018 20.2000000000000028 18.1600000000000001
 14.0800000000000018 22.2400000000000020 16.1200000000000010
 12.0400000000000009 20.2000000000000028 20.2000000000000028
 12.0400000000000009 22.2400000000000020 22.2400000000000020
 14.0800000000000018 20.2000000000000028 22.2400000000000020
 14.0800000000000018 22.2400000000000020 20.2000000000000028
 12.0400000000000009 20.2000000000000028 24.2800000000000011
 14.0800000000000018 20.2000000000000028 26.3200000000000003
 14.0800000000000018 22.2400000000000020 24.2800000000000011
 14.0800000000000018 24.2800000000000011 18.1600000000000001
 12.0400000000000009 24.2800000000000011 20.2000000000000028
 14.0800000000000018 24.2800000000000011 22.2400000000000020
 14.0800000000000018 26.3200000000000003 20.2000000000000028
 18.1600000000000001 10.0000000000000000 20.2000000000000028
 16.1200000000000010 14.0800000000000018 18.1600000000000001
 18.1600000000000001 12.0400000000000009 18.1600000000000001
 18.1600000000000001 14.0800000000000018 16.1200000000000010
 16.1200000000000010 12.0400000000000009 20.2000000000000028
 16.1200000000000010 14.0800000000000018 22.2400000000000020
 18.1600000000000001 12.0400000000000009 22.2400000000000020
 18.1600000000000001 14.0800000000000018 20.2000000000000028
 18.1600000000000001 14.0800000000000018 24.2800000000000011
 16.1200000000000010 18.1600000000000001 14.0800000000000018
 18.1600000000000001 16.1200000000000010 14.0800000000000018
 18.1600000000000001 18.1600000000000001 12.0400000000000009
 16.1200000000000010 16.1200000000000010 16.1200000000000010
 16.1200000000000010 18.1600000000000001 18.1600000000000001
 18.1600000000000001 16.1200000000000010 18.1600000000000001
 18.1600000000000001 18.1600000000000001 16.1200000000000010
 16.1200000000000010 16.1200000000000010 20.2000000000000028
 16.1200000000000010 18.1600000000000001 22.2400000000000020
 18.1600000000000001 16.1200000000000010 22.2400000000000020
 18.1600000000000001 18.1600000000000001 20.2000000000000028
 16.1200000000000010 16.1200000000000010 24.2800000000000011
 16.1200000000000010 18.1600000000000001 26.3200000000000003
 18.1600000000000001 16.1200000000000010 26.3200000000000003
 18.1600000000000001 18.1600000000000001 24.2800000000000011
 18.1600000000000001 18.1600000000000001 28.3599999999999994
 18.1600000000000001 20.2000000000000028 10.0000000000000000
 16.1200000000000010 20.2000000000000028 12.0400000000000009
 16.1200000000000010 22.2400000000000020 14.0800000000000018
 18.1600000000000001 20.2000000000000028 14.0800000000000018
 18.1600000000000001 22.2400000000000020 12.0400000000000009
 16.1200000000000010 20.2000000000000028 16.1200000000000010
 16.1200000000000010 22.2400000000000020 18.1600000000000001
 18.1600000000000001 20.2000000000000028 18.1600000000000001
 18.1600000000000001 22.2400000000000020 16.1200000000000010
 16.1200000000000010 20.2000000000000028 20.2000000000000028
 16.1200000000000010 22.2400000000000020 22.2400000000000020
 18.1600000000000001 20.2000000000000028 22.2400000000000020
 18.1600000000000001 22.2400000000000020 20.2000000000000028
 16.1200000000000010 20.2000000000000028 24.2800000000000011
 16.1200000000000010 22.2400000000000020 26.3200000000000003
 18.1600000000000001 20.2000000000000028 26.3200000000000003
 18.1600000000000001 22.2400000000000020 24.2800000000000011
 16.1200000000000010 20.2000000000000028 28.3599999999999994
 18.1600000000000001 20.2000000000000028 30.3999999999999986
 18.1600000000000001 22.2400000000000020 28.3599999999999994
 18.1600000000000001 24.2800000000000011 14.0800000000000018
 16.1200000000000010 24.2800000000000011 16.1200000000000010
 16.1200000000000010 26.3200000000000003 18.1600000000000001
 18.1600000000000001 24.2800000000000011 18.1600000000000001
 18.1600000000000001 26.3200000000000003 16.1200000000000010
 16.1200000000000010 24.2800000000000011 20.2000000000000028
 16.1200000000000010 26.3200000000000003 22.2400000000000020
 18.1600000000000001 24.2800000000000011 22.2400000000000020
 18.1600000000000001 26.3200000000000003 20.2000000000000028
 16.1200000000000010 24.2800000000000011 24.2800000000000011
 18.1600000000000001 24.2800000000000011 26.3200000000000003
 18.1600000000000001 26.3200000000000003 24.2800000000000011
 18.1600000000000001 28.3599999999999994 18.1600000000000001
 16.1200000000000010 28.3599999999999994 20.2000000000000028
 18.1600000000000001 28.3599999999999994 22.2400000000000020
 18.1600000000000001 30.3999999999999986 20.2000000000000028
 20.2000000000000028 10.0000000000000000 18.1600000000000001
 20.2000000000000028 10.0000000000000000 22.2400000000000020
 22.2400000000000020 10.0000000000000000 20.2000000000000028
 20.2000000000000028 14.0800000000000018 14.0800000000000018
 20.2000000000000028 12.0400000000000009 16.1200000000000010
 20.2000000000000028 14.0800000000000018 18.1600000000000001
 22.2400000000000020 12.0400000000000009 18.1600000000000001
 22.2400000000000020 14.0800000000000018 16.1200000000000010
 20.2000000000000028 12.0400000000000009 20.2000000000000028
 20.2000000000000028 14.0800000000000018 22.2400000000000020
 22.2400000000000020 12.0400000000000009 22.2400000000000020
 22.2400000000000020 14.0800000000000018 20.2000000000000028
 20.2000000000000028 12.0400000000000009 24.2800000000000011
 20.2000000000000028 14.0800000000000018 26.3200000000000003
 22.2400000000000020 14.0800000000000018 24.2800000000000011
 20.2000000000000028 18.1600000000000001 10.0000000000000000
 20.2000000000000028 16.1200000000000010 12.0400000000000009
 20.2000000000000028 18.1600000000000001 14.0800000000000018
 22.2400000000000020 16.1200000000000010 14.0800000000000018
 22.2400000000000020 18.1600000000000001 12.0400000000000009
 20.2000000000000028 16.1200000000000010 16.1200000000000010
 20.2000000000000028 18.1600000000000001 18.1600000000000001
 22.2400000000000020 16.1200000000000010 18.1600000000000001
 22.2400000000000020 18.1600000000000001 16.1200000000000010
 20.2000000000000028 16.1200000000000010 20.2000000000000028
 20.2000000000000028 18.1600000000000001 22.2400000000000020
 22.2400000000000020 16.1200000000000010 22.2400000000000020
 22.2400000000000020 18.1600000000000001 20.2000000000000028
 20.2000000000000028 16.1200000000000010 24.2800000000000011
 20.2000000000000028 18.1600000000000001 26.3200000000000003
 22.2400000000000020 16.1200000000000010 26.3200000000000003
 22.2400000000000020 18.1600000000000001 24.2800000000000011
 20.2000000000000028 16.1200000000000010 28.3599999999999994
 20.2000000000000028 18.1600000000000001 30.3999999999999986
 22.2400000000000020 18.1600000000000001 28.3599999999999994
 20.2000000000000028 22.2400000000000020 10.0000000000000000
 22.2400000000000020 20.2000000000000028 10.0000000000000000
 20.2000000000000028 20.2000000000000028 12.0400000000000009
 20.2000000000000028 22.2400000000000020 14.0800000000000018
 22.2400000000000020 20.2000000000000028 14.0800000000000018
 22.2400000000000020 22.2400000000000020 12.0400000000000009
 20.2000000000000028 20.2000000000000028 16.1200000000000010
 20.2000000000000028 22.2400000000000020 18.1600000000000001
 22.2400000000000020 20.2000000000000028 18.1600000000000001
 22.2400000000000020 22.2400000000000020 16.1200000000000010
 20.2000000000000028 20.2000000000000028 20.2000000000000028
 20.2000000000000028 22.2400000000000020 22.2400000000000020
 22.2400000000000020 20.2000000000000028 22.2400000000000020
 22.2400000000000020 22.2400000000000020 20.2000000000000028
 20.2000000000000028 20.2000000000000028 24.2800000000000011
 20.2000000000000028 22.2400000000000020 26.3200000000000003
 22.2400000000000020 20.2000000000000028 26.3200000000000003
 22.2400000000000020 22.2400000000000020 24.2800000000000011
 20.2000000000000028 20.2000000000000028 28.3599999999999994
 20.2000000000000028 22.2400000000000020 30.3999999999999986
 22.2400000000000020 20.2000000000000028 30.3999999999999986
 22.2400000000000020 22.2400000000000020 28.3599999999999994
 20.2000000000000028 24.2800000000000011 12.0400000000000009
 20.2000000000000028 26.3200000000000003 14.0800000000000018
 22.2400000000000020 24.2800000000000011 14.0800000000000018
 20.2000000000000028 24.2800000000000011 16.1200000000000010
 20.2000000000000028 26.3200000000000003 18.1600000000000001
 22.2400000000000020 24.2800000000000011 18.1600000000000001
 22.2400000000000020 26.3200000000000003 16.1200000000000010
 20.2000000000000028 24.2800000000000011 20.2000000000000028
 20.2000000000000028 26.3200000000000003 22.2400000000000020
 22.2400000000000020 24.2800000000000011 22.2400000000000020
 22.2400000000000020 26.3200000000000003 20.2000000000000028
 20.2000000000000028 24.2800000000000011 24.2800000000000011
 20.2000000000000028 26.3200000000000003 26.3200000000000003
 22.2400000000000020 24.2800000000000011 26.3200000000000003
 22.2400000000000020 26.3200000000000003 24.2800000000000011
 20.2000000000000028 24.2800000000000011 28.3599999999999994
 20.2000000000000028 28.3599999999999994 16.1200000000000010
 20.2000000000000028 30.3999999999999986 18.1600000000000001
 22.2400000000000020 28.3599999999999994 18.1600000000000001
 20.2000000000000028 28.3599999999999994 20.2000000000000028
 20.2000000000000028 30.3999999999999986 22.2400000000000020
 22.2400000000000020 28.3599999999999994 22.2400000000000020
 22.2400000000000020 30.3999999999999986 20.2000000000000028
 20.2000000000000028 28.3599999999999994 24.2800000000000011
 24.2800000000000011 14.0800000000000018 18.1600000000000001
 24.2800000000000011 12.0400000000000009 20.2000000000000028
 24.2800000000000011 14.0800000000000018 22.2400000000000020
 26.3200000000000003 14.0800000000000018 20.2000000000000028
 24.2800000000000011 18.1600000000000001 14.0800000000000018
 24.2800000000000011 16.1200000000000010 16.1200000000000010
 24.2800000000000011 18.1600000000000001 18.1600000000000001
 26.3200000000000003 16.1200000000000010 18.1600000000000001
 26.3200000000000003 18.1600000000000001 16.1200000000000010
 24.2800000000000011 16.1200000000000010 20.2000000000000028
 24.2800000000000011 18.1600000000000001 22.2400000000000020
 26.3200000000000003 16.1200000000000010 22.2400000000000020
 26.3200000000000003 18.1600000000000001 20.2000000000000028
 24.2800000000000011 16.1200000000000010 24.2800000000000011
 24.2800000000000011 18.1600000000000001 26.3200000000000003
 26.3200000000000003 18.1600000000000001 24.2800000000000011
 24.2800000000000011 20.2000000000000028 12.0400000000000009
 24.2800000000000011 22.2400000000000020 14.0800000000000018
 26.3200000000000003 20.2000000000000028 14.0800000000000018
 24.2800000000000011 20.2000000000000028 16.1200000000000010
 24.2800000000000011 22.2400000000000020 18.1600000000000001
 26.3200000000000003 20.2000000000000028 18.1600000000000001
 26.3200000000000003 22.2400000000000020 16.1200000000000010
 24.2800000000000011 20.2000000000000028 20.2000000000000028
 24.2800000000000011 22.2400000000000020 22.2400000000000020
 26.3200000000000003 20.2000000000000028 22.2400000000000020
 26.3200000000000003 22.2400000000000020 20.2000000000000028
 24.2800000000000011 20.2000000000000028 24.2800000000000011
 24.2800000000000011 22.2400000000000020 26.3200000000000003
 26.3200000000000003 20.2000000000000028 26.3200000000000003
 26.3200000000000003 22.2400000000000020 24.2800000000000011
 24.2800000000000011 20.2000000000000028 28.3599999999999994
 24.2800000000000011 24.2800000000000011 16.1200000000000010
 24.2800000000000011 26.3200000000000003 18.1600000000000001
 26.3200000000000003 24.2800000000000011 18.1600000000000001
 24.2800000000000011 24.2800000000000011 20.2000000000000028
 24.2800000000000011 26.3200000000000003 22.2400000000000020
 26.3200000000000003 24.2800000000000011 22.2400000000000020
 26.3200000000000003 26.3200000000000003 20.2000000000000028
 24.2800000000000011 24.2800000000000011 24.2800000000000011
 24.2800000000000011 28.3599999999999994 20.2000000000000028
 28.3599999999999994 18.1600000000000001 18.1600000000000001
 28.3599999999999994 16.1200000000000010 20.2000000000000028
 28.3599999999999994 18.1600000000000001 22.2400000000000020
 30.3999999999999986 18.1600000000000001 20.2000000000000028
 28.3599999999999994 20.2000000000000028 16.1200000000000010
 28.3599999999999994 22.2400000000000020 18.1600000000000001
 30.3999999999999986 20.2000000000000028 18.1600000000000001
 28.3599999999999994 20.2000000000000028 20.2000000000000028
 28.3599999999999994 22.2400000000000020 22.2400000000000020
 30.3999999999999986 20.2000000000000028 22.2400000000000020
 30.3999999999999986 22.2400000000000020 20.2000000000000028
 28.3599999999999994 20.2000000000000028 24.2800000000000011
 28.3599999999999994 24.2800000000000011 20.2000000000000028
