Pt 
 1.0000000000000000
    33.6980667070558368    0.0000000000000000    0.0000000000000000
     0.0000000000000000   33.0276356023911504    0.0000000000000000
     0.0000000000000000    0.0000000000000000   42.1748686580101264
 Pt 
 209
Cartesian
 16.8490333535279184 15.8261357586086078  9.9999999999999982
 16.8490333535279184 15.8261357586086078 12.7718585822512640
 16.8490333535279184 15.8261357586086078 15.5437171645025316
 16.8490333535279184 15.8261357586086078 18.3155757467537974
 16.8490333535279184 15.8261357586086078 21.0874343290050632
 16.8490333535279184 15.8261357586086078 23.8592929112563290
 16.8490333535279184 15.8261357586086078 26.6311514935075948
 16.8490333535279184 15.8261357586086078 29.4030100757588642
 16.8490333535279184 15.8261357586086078 32.1748686580101264
 19.1320444713705591 16.5679310375143842 11.3859292911256311
 19.1320444713705591 16.5679310375143842 14.1577878733768969
 19.1320444713705591 16.5679310375143842 16.9296464556281627
 19.1320444713705591 16.5679310375143842 19.7015050378794285
 19.1320444713705591 16.5679310375143842 22.4733636201306979
 19.1320444713705591 16.5679310375143842 25.2452222023819601
 19.1320444713705591 16.5679310375143842 28.0170807846332295
 19.1320444713705591 16.5679310375143842 30.7889393668844953
 16.8490333535279184 18.2266357065361220 11.3859292911256311
 16.8490333535279184 18.2266357065361220 14.1577878733768969
 16.8490333535279184 18.2266357065361220 16.9296464556281627
 16.8490333535279184 18.2266357065361220 19.7015050378794285
 16.8490333535279184 18.2266357065361220 22.4733636201306979
 16.8490333535279184 18.2266357065361220 25.2452222023819601
 16.8490333535279184 18.2266357065361220 28.0170807846332295
 16.8490333535279184 18.2266357065361220 30.7889393668844953
 14.5660222356852795 16.5679310375143878 11.3859292911256311
 14.5660222356852795 16.5679310375143878 14.1577878733768969
 14.5660222356852795 16.5679310375143878 16.9296464556281627
 14.5660222356852795 16.5679310375143878 19.7015050378794285
 14.5660222356852795 16.5679310375143878 22.4733636201306979
 14.5660222356852795 16.5679310375143878 25.2452222023819601
 14.5660222356852795 16.5679310375143878 28.0170807846332295
 14.5660222356852795 16.5679310375143878 30.7889393668844953
 15.4380548860072757 13.8840905057390724 11.3859292911256311
 15.4380548860072757 13.8840905057390724 14.1577878733768969
 15.4380548860072757 13.8840905057390724 16.9296464556281627
 15.4380548860072757 13.8840905057390724 19.7015050378794285
 15.4380548860072757 13.8840905057390724 22.4733636201306979
 15.4380548860072757 13.8840905057390724 25.2452222023819601
 15.4380548860072757 13.8840905057390724 28.0170807846332295
 15.4380548860072757 13.8840905057390724 30.7889393668844953
 18.2600118210485611 13.8840905057390724 11.3859292911256311
 18.2600118210485611 13.8840905057390724 14.1577878733768969
 18.2600118210485611 13.8840905057390724 16.9296464556281627
 18.2600118210485611 13.8840905057390724 19.7015050378794285
 18.2600118210485611 13.8840905057390724 22.4733636201306979
 18.2600118210485611 13.8840905057390724 25.2452222023819601
 18.2600118210485611 13.8840905057390724 28.0170807846332295
 18.2600118210485611 13.8840905057390724 30.7889393668844953
 21.4150555892131962 17.3097263164201642 12.7718585822512640
 21.4150555892131962 17.3097263164201642 15.5437171645025298
 21.4150555892131962 17.3097263164201642 18.3155757467537974
 21.4150555892131962 17.3097263164201642 21.0874343290050632
 21.4150555892131962 17.3097263164201642 23.8592929112563290
 21.4150555892131962 17.3097263164201642 26.6311514935075948
 21.4150555892131962 17.3097263164201642 29.4030100757588642
 19.1320444713705591 18.9684309854418984 12.7718585822512640
 19.1320444713705591 18.9684309854418984 15.5437171645025298
 19.1320444713705591 18.9684309854418984 18.3155757467537974
 19.1320444713705591 18.9684309854418984 21.0874343290050632
 19.1320444713705591 18.9684309854418984 23.8592929112563290
 19.1320444713705591 18.9684309854418984 26.6311514935075948
 19.1320444713705591 18.9684309854418984 29.4030100757588642
 16.8490333535279184 20.6271356544636362 12.7718585822512640
 16.8490333535279184 20.6271356544636362 15.5437171645025298
 16.8490333535279184 20.6271356544636362 18.3155757467537974
 16.8490333535279184 20.6271356544636362 21.0874343290050632
 16.8490333535279184 20.6271356544636362 23.8592929112563290
 16.8490333535279184 20.6271356544636362 26.6311514935075948
 16.8490333535279184 20.6271356544636362 29.4030100757588642
 14.5660222356852795 18.9684309854418984 12.7718585822512640
 14.5660222356852795 18.9684309854418984 15.5437171645025298
 14.5660222356852795 18.9684309854418984 18.3155757467537974
 14.5660222356852795 18.9684309854418984 21.0874343290050632
 14.5660222356852795 18.9684309854418984 23.8592929112563290
 14.5660222356852795 18.9684309854418984 26.6311514935075948
 14.5660222356852795 18.9684309854418984 29.4030100757588642
 12.2830111178426407 17.3097263164201642 12.7718585822512640
 12.2830111178426407 17.3097263164201642 15.5437171645025298
 12.2830111178426407 17.3097263164201642 18.3155757467537974
 12.2830111178426407 17.3097263164201642 21.0874343290050632
 12.2830111178426407 17.3097263164201642 23.8592929112563290
 12.2830111178426407 17.3097263164201642 26.6311514935075948
 12.2830111178426407 17.3097263164201642 29.4030100757588642
 13.1550437681646351 14.6258857846448507 12.7718585822512640
 13.1550437681646351 14.6258857846448507 15.5437171645025298
 13.1550437681646351 14.6258857846448507 18.3155757467537974
 13.1550437681646351 14.6258857846448507 21.0874343290050632
 13.1550437681646351 14.6258857846448507 23.8592929112563290
 13.1550437681646351 14.6258857846448507 26.6311514935075948
 13.1550437681646351 14.6258857846448507 29.4030100757588642
 14.0270764184866330 11.9420452528695371 12.7718585822512640
 14.0270764184866330 11.9420452528695371 15.5437171645025298
 14.0270764184866330 11.9420452528695371 18.3155757467537974
 14.0270764184866330 11.9420452528695371 21.0874343290050632
 14.0270764184866330 11.9420452528695371 23.8592929112563290
 14.0270764184866330 11.9420452528695371 26.6311514935075948
 14.0270764184866330 11.9420452528695371 29.4030100757588642
 16.8490333535279184 11.9420452528695371 12.7718585822512640
 16.8490333535279184 11.9420452528695371 15.5437171645025298
 16.8490333535279184 11.9420452528695371 18.3155757467537974
 16.8490333535279184 11.9420452528695371 21.0874343290050632
 16.8490333535279184 11.9420452528695371 23.8592929112563290
 16.8490333535279184 11.9420452528695371 26.6311514935075948
 16.8490333535279184 11.9420452528695371 29.4030100757588642
 19.6709902885692038 11.9420452528695371 12.7718585822512640
 19.6709902885692038 11.9420452528695371 15.5437171645025298
 19.6709902885692038 11.9420452528695371 18.3155757467537974
 19.6709902885692038 11.9420452528695371 21.0874343290050632
 19.6709902885692038 11.9420452528695371 23.8592929112563290
 19.6709902885692038 11.9420452528695371 26.6311514935075948
 19.6709902885692038 11.9420452528695371 29.4030100757588642
 20.5430229388911982 14.6258857846448507 12.7718585822512640
 20.5430229388911982 14.6258857846448507 15.5437171645025298
 20.5430229388911982 14.6258857846448507 18.3155757467537974
 20.5430229388911982 14.6258857846448507 21.0874343290050632
 20.5430229388911982 14.6258857846448507 23.8592929112563290
 20.5430229388911982 14.6258857846448507 26.6311514935075948
 20.5430229388911982 14.6258857846448507 29.4030100757588642
 23.6980667070558368 18.0515215953259407 14.1577878733768969
 23.6980667070558368 18.0515215953259407 16.9296464556281663
 23.6980667070558368 18.0515215953259407 19.7015050378794285
 23.6980667070558368 18.0515215953259407 22.4733636201306979
 23.6980667070558368 18.0515215953259407 25.2452222023819637
 23.6980667070558368 18.0515215953259407 28.0170807846332295
 21.4150555892131962 19.7102262643476784 14.1577878733768969
 21.4150555892131962 19.7102262643476784 16.9296464556281663
 21.4150555892131962 19.7102262643476784 19.7015050378794285
 21.4150555892131962 19.7102262643476784 22.4733636201306979
 21.4150555892131962 19.7102262643476784 25.2452222023819637
 21.4150555892131962 19.7102262643476784 28.0170807846332295
 19.1320444713705591 21.3689309333694126 14.1577878733768969
 19.1320444713705591 21.3689309333694126 16.9296464556281663
 19.1320444713705591 21.3689309333694126 19.7015050378794285
 19.1320444713705591 21.3689309333694126 22.4733636201306979
 19.1320444713705591 21.3689309333694126 25.2452222023819637
 19.1320444713705591 21.3689309333694126 28.0170807846332295
 16.8490333535279184 23.0276356023911504 14.1577878733768969
 16.8490333535279184 23.0276356023911504 16.9296464556281663
 16.8490333535279184 23.0276356023911504 19.7015050378794285
 16.8490333535279184 23.0276356023911504 22.4733636201306979
 16.8490333535279184 23.0276356023911504 25.2452222023819637
 16.8490333535279184 23.0276356023911504 28.0170807846332295
 14.5660222356852795 21.3689309333694126 14.1577878733768969
 14.5660222356852795 21.3689309333694126 16.9296464556281663
 14.5660222356852795 21.3689309333694126 19.7015050378794285
 14.5660222356852795 21.3689309333694126 22.4733636201306979
 14.5660222356852795 21.3689309333694126 25.2452222023819637
 14.5660222356852795 21.3689309333694126 28.0170807846332295
 12.2830111178426407 19.7102262643476784 14.1577878733768969
 12.2830111178426407 19.7102262643476784 16.9296464556281663
 12.2830111178426407 19.7102262643476784 19.7015050378794285
 12.2830111178426407 19.7102262643476784 22.4733636201306979
 12.2830111178426407 19.7102262643476784 25.2452222023819637
 12.2830111178426407 19.7102262643476784 28.0170807846332295
 10.0000000000000000 18.0515215953259442 14.1577878733768969
 10.0000000000000000 18.0515215953259442 16.9296464556281663
 10.0000000000000000 18.0515215953259442 19.7015050378794285
 10.0000000000000000 18.0515215953259442 22.4733636201306979
 10.0000000000000000 18.0515215953259442 25.2452222023819637
 10.0000000000000000 18.0515215953259442 28.0170807846332295
 10.8720326503219979 15.3676810635506289 14.1577878733768969
 10.8720326503219979 15.3676810635506289 16.9296464556281663
 10.8720326503219979 15.3676810635506289 19.7015050378794285
 10.8720326503219979 15.3676810635506289 22.4733636201306979
 10.8720326503219979 15.3676810635506289 25.2452222023819637
 10.8720326503219979 15.3676810635506289 28.0170807846332295
 11.7440653006439923 12.6838405317753171 14.1577878733768969
 11.7440653006439923 12.6838405317753171 16.9296464556281663
 11.7440653006439923 12.6838405317753171 19.7015050378794285
 11.7440653006439923 12.6838405317753171 22.4733636201306979
 11.7440653006439923 12.6838405317753171 25.2452222023819637
 11.7440653006439923 12.6838405317753171 28.0170807846332295
 12.6160979509659903 10.0000000000000036 14.1577878733768969
 12.6160979509659903 10.0000000000000036 16.9296464556281663
 12.6160979509659903 10.0000000000000036 19.7015050378794285
 12.6160979509659903 10.0000000000000036 22.4733636201306979
 12.6160979509659903 10.0000000000000036 25.2452222023819637
 12.6160979509659903 10.0000000000000036 28.0170807846332295
 15.4380548860072739 10.0000000000000018 14.1577878733768969
 15.4380548860072739 10.0000000000000018 16.9296464556281663
 15.4380548860072739 10.0000000000000018 19.7015050378794285
 15.4380548860072739 10.0000000000000018 22.4733636201306979
 15.4380548860072739 10.0000000000000018 25.2452222023819637
 15.4380548860072739 10.0000000000000018 28.0170807846332295
 18.2600118210485611 10.0000000000000000 14.1577878733768969
 18.2600118210485611 10.0000000000000000 16.9296464556281663
 18.2600118210485611 10.0000000000000000 19.7015050378794285
 18.2600118210485611 10.0000000000000000 22.4733636201306979
 18.2600118210485611 10.0000000000000000 25.2452222023819637
 18.2600118210485611 10.0000000000000000 28.0170807846332295
 21.0819687560898430 10.0000000000000000 14.1577878733768969
 21.0819687560898430 10.0000000000000000 16.9296464556281663
 21.0819687560898430 10.0000000000000000 19.7015050378794285
 21.0819687560898430 10.0000000000000000 22.4733636201306979
 21.0819687560898430 10.0000000000000000 25.2452222023819637
 21.0819687560898430 10.0000000000000000 28.0170807846332295
 21.9540014064118409 12.6838405317753136 14.1577878733768969
 21.9540014064118409 12.6838405317753136 16.9296464556281663
 21.9540014064118409 12.6838405317753136 19.7015050378794285
 21.9540014064118409 12.6838405317753136 22.4733636201306979
 21.9540014064118409 12.6838405317753136 25.2452222023819637
 21.9540014064118409 12.6838405317753136 28.0170807846332295
 22.8260340567338389 15.3676810635506271 14.1577878733768969
 22.8260340567338389 15.3676810635506271 16.9296464556281663
 22.8260340567338389 15.3676810635506271 19.7015050378794285
 22.8260340567338389 15.3676810635506271 22.4733636201306979
 22.8260340567338389 15.3676810635506271 25.2452222023819637
 22.8260340567338389 15.3676810635506271 28.0170807846332295
