Pt 
 1.0000000000000000
    42.8301111784263924    0.0000000000000000    0.0000000000000000
     0.0000000000000000   41.7127260039852530    0.0000000000000000
     0.0000000000000000    0.0000000000000000   50.4904444047639274
 Pt 
 637
Cartesian
 21.4150555892131962 19.7102262643476820 10.0000000000000036
 21.4150555892131962 19.7102262643476820 12.7718585822512694
 21.4150555892131962 19.7102262643476820 15.5437171645025352
 21.4150555892131962 19.7102262643476820 18.3155757467538010
 21.4150555892131962 19.7102262643476820 21.0874343290050703
 21.4150555892131962 19.7102262643476820 23.8592929112563326
 21.4150555892131962 19.7102262643476820 26.6311514935076019
 21.4150555892131962 19.7102262643476820 29.4030100757588677
 21.4150555892131962 19.7102262643476820 32.1748686580101335
 21.4150555892131962 19.7102262643476820 34.9467272402613958
 21.4150555892131962 19.7102262643476820 37.7185858225126651
 21.4150555892131962 19.7102262643476820 40.4904444047639345
 23.6980667070558368 20.4520215432534584 11.3859292911256365
 23.6980667070558368 20.4520215432534584 14.1577878733769023
 23.6980667070558368 20.4520215432534584 16.9296464556281698
 23.6980667070558368 20.4520215432534584 19.7015050378794356
 23.6980667070558368 20.4520215432534584 22.4733636201307014
 23.6980667070558368 20.4520215432534584 25.2452222023819672
 23.6980667070558368 20.4520215432534584 28.0170807846332366
 23.6980667070558368 20.4520215432534584 30.7889393668844988
 23.6980667070558368 20.4520215432534584 33.5607979491357682
 23.6980667070558368 20.4520215432534584 36.3326565313870304
 23.6980667070558368 20.4520215432534584 39.1045151136382998
 21.4150555892131962 22.1107262122751962 11.3859292911256365
 21.4150555892131962 22.1107262122751962 14.1577878733769023
 21.4150555892131962 22.1107262122751962 16.9296464556281698
 21.4150555892131962 22.1107262122751962 19.7015050378794356
 21.4150555892131962 22.1107262122751962 22.4733636201307014
 21.4150555892131962 22.1107262122751962 25.2452222023819672
 21.4150555892131962 22.1107262122751962 28.0170807846332366
 21.4150555892131962 22.1107262122751962 30.7889393668844988
 21.4150555892131962 22.1107262122751962 33.5607979491357682
 21.4150555892131962 22.1107262122751962 36.3326565313870304
 21.4150555892131962 22.1107262122751962 39.1045151136382998
 19.1320444713705555 20.4520215432534620 11.3859292911256365
 19.1320444713705555 20.4520215432534620 14.1577878733769023
 19.1320444713705555 20.4520215432534620 16.9296464556281698
 19.1320444713705555 20.4520215432534620 19.7015050378794356
 19.1320444713705555 20.4520215432534620 22.4733636201307014
 19.1320444713705555 20.4520215432534620 25.2452222023819672
 19.1320444713705555 20.4520215432534620 28.0170807846332366
 19.1320444713705555 20.4520215432534620 30.7889393668844988
 19.1320444713705555 20.4520215432534620 33.5607979491357682
 19.1320444713705555 20.4520215432534620 36.3326565313870304
 19.1320444713705555 20.4520215432534620 39.1045151136382998
 20.0040771216925535 17.7681810114781484 11.3859292911256365
 20.0040771216925535 17.7681810114781484 14.1577878733769023
 20.0040771216925535 17.7681810114781484 16.9296464556281698
 20.0040771216925535 17.7681810114781484 19.7015050378794356
 20.0040771216925535 17.7681810114781484 22.4733636201307014
 20.0040771216925535 17.7681810114781484 25.2452222023819672
 20.0040771216925535 17.7681810114781484 28.0170807846332366
 20.0040771216925535 17.7681810114781484 30.7889393668844988
 20.0040771216925535 17.7681810114781484 33.5607979491357682
 20.0040771216925535 17.7681810114781484 36.3326565313870304
 20.0040771216925535 17.7681810114781484 39.1045151136382998
 22.8260340567338389 17.7681810114781449 11.3859292911256365
 22.8260340567338389 17.7681810114781449 14.1577878733769023
 22.8260340567338389 17.7681810114781449 16.9296464556281698
 22.8260340567338389 17.7681810114781449 19.7015050378794356
 22.8260340567338389 17.7681810114781449 22.4733636201307014
 22.8260340567338389 17.7681810114781449 25.2452222023819672
 22.8260340567338389 17.7681810114781449 28.0170807846332366
 22.8260340567338389 17.7681810114781449 30.7889393668844988
 22.8260340567338389 17.7681810114781449 33.5607979491357682
 22.8260340567338389 17.7681810114781449 36.3326565313870304
 22.8260340567338389 17.7681810114781449 39.1045151136382998
 25.9810778248984739 21.1938168221592385 12.7718585822512694
 25.9810778248984739 21.1938168221592385 15.5437171645025352
 25.9810778248984739 21.1938168221592385 18.3155757467538010
 25.9810778248984739 21.1938168221592385 21.0874343290050703
 25.9810778248984739 21.1938168221592385 23.8592929112563326
 25.9810778248984739 21.1938168221592385 26.6311514935076019
 25.9810778248984739 21.1938168221592385 29.4030100757588677
 25.9810778248984739 21.1938168221592385 32.1748686580101335
 25.9810778248984739 21.1938168221592385 34.9467272402613958
 25.9810778248984739 21.1938168221592385 37.7185858225126651
 23.6980667070558368 22.8525214911809726 12.7718585822512694
 23.6980667070558368 22.8525214911809726 15.5437171645025352
 23.6980667070558368 22.8525214911809726 18.3155757467538010
 23.6980667070558368 22.8525214911809726 21.0874343290050703
 23.6980667070558368 22.8525214911809726 23.8592929112563326
 23.6980667070558368 22.8525214911809726 26.6311514935076019
 23.6980667070558368 22.8525214911809726 29.4030100757588677
 23.6980667070558368 22.8525214911809726 32.1748686580101335
 23.6980667070558368 22.8525214911809726 34.9467272402613958
 23.6980667070558368 22.8525214911809726 37.7185858225126651
 21.4150555892131962 24.5112261602027104 12.7718585822512694
 21.4150555892131962 24.5112261602027104 15.5437171645025352
 21.4150555892131962 24.5112261602027104 18.3155757467538010
 21.4150555892131962 24.5112261602027104 21.0874343290050703
 21.4150555892131962 24.5112261602027104 23.8592929112563326
 21.4150555892131962 24.5112261602027104 26.6311514935076019
 21.4150555892131962 24.5112261602027104 29.4030100757588677
 21.4150555892131962 24.5112261602027104 32.1748686580101335
 21.4150555892131962 24.5112261602027104 34.9467272402613958
 21.4150555892131962 24.5112261602027104 37.7185858225126651
 19.1320444713705555 22.8525214911809726 12.7718585822512694
 19.1320444713705555 22.8525214911809726 15.5437171645025352
 19.1320444713705555 22.8525214911809726 18.3155757467538010
 19.1320444713705555 22.8525214911809726 21.0874343290050703
 19.1320444713705555 22.8525214911809726 23.8592929112563326
 19.1320444713705555 22.8525214911809726 26.6311514935076019
 19.1320444713705555 22.8525214911809726 29.4030100757588677
 19.1320444713705555 22.8525214911809726 32.1748686580101335
 19.1320444713705555 22.8525214911809726 34.9467272402613958
 19.1320444713705555 22.8525214911809726 37.7185858225126651
 16.8490333535279184 21.1938168221592385 12.7718585822512694
 16.8490333535279184 21.1938168221592385 15.5437171645025352
 16.8490333535279184 21.1938168221592385 18.3155757467538010
 16.8490333535279184 21.1938168221592385 21.0874343290050703
 16.8490333535279184 21.1938168221592385 23.8592929112563326
 16.8490333535279184 21.1938168221592385 26.6311514935076019
 16.8490333535279184 21.1938168221592385 29.4030100757588677
 16.8490333535279184 21.1938168221592385 32.1748686580101335
 16.8490333535279184 21.1938168221592385 34.9467272402613958
 16.8490333535279184 21.1938168221592385 37.7185858225126651
 17.7210660038499128 18.5099762903839249 12.7718585822512694
 17.7210660038499128 18.5099762903839249 15.5437171645025352
 17.7210660038499128 18.5099762903839249 18.3155757467538010
 17.7210660038499128 18.5099762903839249 21.0874343290050703
 17.7210660038499128 18.5099762903839249 23.8592929112563326
 17.7210660038499128 18.5099762903839249 26.6311514935076019
 17.7210660038499128 18.5099762903839249 29.4030100757588677
 17.7210660038499128 18.5099762903839249 32.1748686580101335
 17.7210660038499128 18.5099762903839249 34.9467272402613958
 17.7210660038499128 18.5099762903839249 37.7185858225126651
 18.5930986541719108 15.8261357586086113 12.7718585822512694
 18.5930986541719108 15.8261357586086113 15.5437171645025352
 18.5930986541719108 15.8261357586086113 18.3155757467538010
 18.5930986541719108 15.8261357586086113 21.0874343290050703
 18.5930986541719108 15.8261357586086113 23.8592929112563326
 18.5930986541719108 15.8261357586086113 26.6311514935076019
 18.5930986541719108 15.8261357586086113 29.4030100757588677
 18.5930986541719108 15.8261357586086113 32.1748686580101335
 18.5930986541719108 15.8261357586086113 34.9467272402613958
 18.5930986541719108 15.8261357586086113 37.7185858225126651
 21.4150555892131962 15.8261357586086113 12.7718585822512694
 21.4150555892131962 15.8261357586086113 15.5437171645025352
 21.4150555892131962 15.8261357586086113 18.3155757467538010
 21.4150555892131962 15.8261357586086113 21.0874343290050703
 21.4150555892131962 15.8261357586086113 23.8592929112563326
 21.4150555892131962 15.8261357586086113 26.6311514935076019
 21.4150555892131962 15.8261357586086113 29.4030100757588677
 21.4150555892131962 15.8261357586086113 32.1748686580101335
 21.4150555892131962 15.8261357586086113 34.9467272402613958
 21.4150555892131962 15.8261357586086113 37.7185858225126651
 24.2370125242544816 15.8261357586086113 12.7718585822512694
 24.2370125242544816 15.8261357586086113 15.5437171645025352
 24.2370125242544816 15.8261357586086113 18.3155757467538010
 24.2370125242544816 15.8261357586086113 21.0874343290050703
 24.2370125242544816 15.8261357586086113 23.8592929112563326
 24.2370125242544816 15.8261357586086113 26.6311514935076019
 24.2370125242544816 15.8261357586086113 29.4030100757588677
 24.2370125242544816 15.8261357586086113 32.1748686580101335
 24.2370125242544816 15.8261357586086113 34.9467272402613958
 24.2370125242544816 15.8261357586086113 37.7185858225126651
 25.1090451745764796 18.5099762903839249 12.7718585822512694
 25.1090451745764796 18.5099762903839249 15.5437171645025352
 25.1090451745764796 18.5099762903839249 18.3155757467538010
 25.1090451745764796 18.5099762903839249 21.0874343290050703
 25.1090451745764796 18.5099762903839249 23.8592929112563326
 25.1090451745764796 18.5099762903839249 26.6311514935076019
 25.1090451745764796 18.5099762903839249 29.4030100757588677
 25.1090451745764796 18.5099762903839249 32.1748686580101335
 25.1090451745764796 18.5099762903839249 34.9467272402613958
 25.1090451745764796 18.5099762903839249 37.7185858225126651
 28.2640889427411146 21.9356121010650149 14.1577878733769023
 28.2640889427411146 21.9356121010650149 16.9296464556281663
 28.2640889427411146 21.9356121010650149 19.7015050378794356
 28.2640889427411146 21.9356121010650149 22.4733636201307014
 28.2640889427411146 21.9356121010650149 25.2452222023819672
 28.2640889427411146 21.9356121010650149 28.0170807846332330
 28.2640889427411146 21.9356121010650149 30.7889393668844988
 28.2640889427411146 21.9356121010650149 33.5607979491357682
 28.2640889427411146 21.9356121010650149 36.3326565313870304
 25.9810778248984739 23.5943167700867527 14.1577878733769023
 25.9810778248984739 23.5943167700867527 16.9296464556281663
 25.9810778248984739 23.5943167700867527 19.7015050378794356
 25.9810778248984739 23.5943167700867527 22.4733636201307014
 25.9810778248984739 23.5943167700867527 25.2452222023819672
 25.9810778248984739 23.5943167700867527 28.0170807846332330
 25.9810778248984739 23.5943167700867527 30.7889393668844988
 25.9810778248984739 23.5943167700867527 33.5607979491357682
 25.9810778248984739 23.5943167700867527 36.3326565313870304
 23.6980667070558368 25.2530214391084868 14.1577878733769023
 23.6980667070558368 25.2530214391084868 16.9296464556281663
 23.6980667070558368 25.2530214391084868 19.7015050378794356
 23.6980667070558368 25.2530214391084868 22.4733636201307014
 23.6980667070558368 25.2530214391084868 25.2452222023819672
 23.6980667070558368 25.2530214391084868 28.0170807846332330
 23.6980667070558368 25.2530214391084868 30.7889393668844988
 23.6980667070558368 25.2530214391084868 33.5607979491357682
 23.6980667070558368 25.2530214391084868 36.3326565313870304
 21.4150555892131962 26.9117261081302246 14.1577878733769023
 21.4150555892131962 26.9117261081302246 16.9296464556281663
 21.4150555892131962 26.9117261081302246 19.7015050378794356
 21.4150555892131962 26.9117261081302246 22.4733636201307014
 21.4150555892131962 26.9117261081302246 25.2452222023819672
 21.4150555892131962 26.9117261081302246 28.0170807846332330
 21.4150555892131962 26.9117261081302246 30.7889393668844988
 21.4150555892131962 26.9117261081302246 33.5607979491357682
 21.4150555892131962 26.9117261081302246 36.3326565313870304
 19.1320444713705555 25.2530214391084868 14.1577878733769023
 19.1320444713705555 25.2530214391084868 16.9296464556281663
 19.1320444713705555 25.2530214391084868 19.7015050378794356
 19.1320444713705555 25.2530214391084868 22.4733636201307014
 19.1320444713705555 25.2530214391084868 25.2452222023819672
 19.1320444713705555 25.2530214391084868 28.0170807846332330
 19.1320444713705555 25.2530214391084868 30.7889393668844988
 19.1320444713705555 25.2530214391084868 33.5607979491357682
 19.1320444713705555 25.2530214391084868 36.3326565313870304
 16.8490333535279184 23.5943167700867527 14.1577878733769023
 16.8490333535279184 23.5943167700867527 16.9296464556281663
 16.8490333535279184 23.5943167700867527 19.7015050378794356
 16.8490333535279184 23.5943167700867527 22.4733636201307014
 16.8490333535279184 23.5943167700867527 25.2452222023819672
 16.8490333535279184 23.5943167700867527 28.0170807846332330
 16.8490333535279184 23.5943167700867527 30.7889393668844988
 16.8490333535279184 23.5943167700867527 33.5607979491357682
 16.8490333535279184 23.5943167700867527 36.3326565313870304
 14.5660222356852778 21.9356121010650185 14.1577878733769023
 14.5660222356852778 21.9356121010650185 16.9296464556281663
 14.5660222356852778 21.9356121010650185 19.7015050378794356
 14.5660222356852778 21.9356121010650185 22.4733636201307014
 14.5660222356852778 21.9356121010650185 25.2452222023819672
 14.5660222356852778 21.9356121010650185 28.0170807846332330
 14.5660222356852778 21.9356121010650185 30.7889393668844988
 14.5660222356852778 21.9356121010650185 33.5607979491357682
 14.5660222356852778 21.9356121010650185 36.3326565313870304
 15.4380548860072757 19.2517715692897049 14.1577878733769023
 15.4380548860072757 19.2517715692897049 16.9296464556281663
 15.4380548860072757 19.2517715692897049 19.7015050378794356
 15.4380548860072757 19.2517715692897049 22.4733636201307014
 15.4380548860072757 19.2517715692897049 25.2452222023819672
 15.4380548860072757 19.2517715692897049 28.0170807846332330
 15.4380548860072757 19.2517715692897049 30.7889393668844988
 15.4380548860072757 19.2517715692897049 33.5607979491357682
 15.4380548860072757 19.2517715692897049 36.3326565313870304
 16.3100875363292701 16.5679310375143913 14.1577878733769023
 16.3100875363292701 16.5679310375143913 16.9296464556281663
 16.3100875363292701 16.5679310375143913 19.7015050378794356
 16.3100875363292701 16.5679310375143913 22.4733636201307014
 16.3100875363292701 16.5679310375143913 25.2452222023819672
 16.3100875363292701 16.5679310375143913 28.0170807846332330
 16.3100875363292701 16.5679310375143913 30.7889393668844988
 16.3100875363292701 16.5679310375143913 33.5607979491357682
 16.3100875363292701 16.5679310375143913 36.3326565313870304
 17.1821201866512681 13.8840905057390778 14.1577878733769023
 17.1821201866512681 13.8840905057390778 16.9296464556281663
 17.1821201866512681 13.8840905057390778 19.7015050378794356
 17.1821201866512681 13.8840905057390778 22.4733636201307014
 17.1821201866512681 13.8840905057390778 25.2452222023819672
 17.1821201866512681 13.8840905057390778 28.0170807846332330
 17.1821201866512681 13.8840905057390778 30.7889393668844988
 17.1821201866512681 13.8840905057390778 33.5607979491357682
 17.1821201866512681 13.8840905057390778 36.3326565313870304
 20.0040771216925535 13.8840905057390760 14.1577878733769023
 20.0040771216925535 13.8840905057390760 16.9296464556281663
 20.0040771216925535 13.8840905057390760 19.7015050378794356
 20.0040771216925535 13.8840905057390760 22.4733636201307014
 20.0040771216925535 13.8840905057390760 25.2452222023819672
 20.0040771216925535 13.8840905057390760 28.0170807846332330
 20.0040771216925535 13.8840905057390760 30.7889393668844988
 20.0040771216925535 13.8840905057390760 33.5607979491357682
 20.0040771216925535 13.8840905057390760 36.3326565313870304
 22.8260340567338389 13.8840905057390742 14.1577878733769023
 22.8260340567338389 13.8840905057390742 16.9296464556281663
 22.8260340567338389 13.8840905057390742 19.7015050378794356
 22.8260340567338389 13.8840905057390742 22.4733636201307014
 22.8260340567338389 13.8840905057390742 25.2452222023819672
 22.8260340567338389 13.8840905057390742 28.0170807846332330
 22.8260340567338389 13.8840905057390742 30.7889393668844988
 22.8260340567338389 13.8840905057390742 33.5607979491357682
 22.8260340567338389 13.8840905057390742 36.3326565313870304
 25.6479909917751243 13.8840905057390742 14.1577878733769023
 25.6479909917751243 13.8840905057390742 16.9296464556281663
 25.6479909917751243 13.8840905057390742 19.7015050378794356
 25.6479909917751243 13.8840905057390742 22.4733636201307014
 25.6479909917751243 13.8840905057390742 25.2452222023819672
 25.6479909917751243 13.8840905057390742 28.0170807846332330
 25.6479909917751243 13.8840905057390742 30.7889393668844988
 25.6479909917751243 13.8840905057390742 33.5607979491357682
 25.6479909917751243 13.8840905057390742 36.3326565313870304
 26.5200236420971187 16.5679310375143878 14.1577878733769023
 26.5200236420971187 16.5679310375143878 16.9296464556281663
 26.5200236420971187 16.5679310375143878 19.7015050378794356
 26.5200236420971187 16.5679310375143878 22.4733636201307014
 26.5200236420971187 16.5679310375143878 25.2452222023819672
 26.5200236420971187 16.5679310375143878 28.0170807846332330
 26.5200236420971187 16.5679310375143878 30.7889393668844988
 26.5200236420971187 16.5679310375143878 33.5607979491357682
 26.5200236420971187 16.5679310375143878 36.3326565313870304
 27.3920562924191167 19.2517715692897013 14.1577878733769023
 27.3920562924191167 19.2517715692897013 16.9296464556281663
 27.3920562924191167 19.2517715692897013 19.7015050378794356
 27.3920562924191167 19.2517715692897013 22.4733636201307014
 27.3920562924191167 19.2517715692897013 25.2452222023819672
 27.3920562924191167 19.2517715692897013 28.0170807846332330
 27.3920562924191167 19.2517715692897013 30.7889393668844988
 27.3920562924191167 19.2517715692897013 33.5607979491357682
 27.3920562924191167 19.2517715692897013 36.3326565313870304
 30.5471000605837517 22.6774073799707914 15.5437171645025352
 30.5471000605837517 22.6774073799707914 18.3155757467538010
 30.5471000605837517 22.6774073799707914 21.0874343290050668
 30.5471000605837517 22.6774073799707914 23.8592929112563326
 30.5471000605837517 22.6774073799707914 26.6311514935076019
 30.5471000605837517 22.6774073799707914 29.4030100757588642
 30.5471000605837517 22.6774073799707914 32.1748686580101335
 30.5471000605837517 22.6774073799707914 34.9467272402613958
 28.2640889427411146 24.3361120489925291 15.5437171645025352
 28.2640889427411146 24.3361120489925291 18.3155757467538010
 28.2640889427411146 24.3361120489925291 21.0874343290050668
 28.2640889427411146 24.3361120489925291 23.8592929112563326
 28.2640889427411146 24.3361120489925291 26.6311514935076019
 28.2640889427411146 24.3361120489925291 29.4030100757588642
 28.2640889427411146 24.3361120489925291 32.1748686580101335
 28.2640889427411146 24.3361120489925291 34.9467272402613958
 25.9810778248984739 25.9948167180142669 15.5437171645025352
 25.9810778248984739 25.9948167180142669 18.3155757467538010
 25.9810778248984739 25.9948167180142669 21.0874343290050668
 25.9810778248984739 25.9948167180142669 23.8592929112563326
 25.9810778248984739 25.9948167180142669 26.6311514935076019
 25.9810778248984739 25.9948167180142669 29.4030100757588642
 25.9810778248984739 25.9948167180142669 32.1748686580101335
 25.9810778248984739 25.9948167180142669 34.9467272402613958
 23.6980667070558368 27.6535213870360010 15.5437171645025352
 23.6980667070558368 27.6535213870360010 18.3155757467538010
 23.6980667070558368 27.6535213870360010 21.0874343290050668
 23.6980667070558368 27.6535213870360010 23.8592929112563326
 23.6980667070558368 27.6535213870360010 26.6311514935076019
 23.6980667070558368 27.6535213870360010 29.4030100757588642
 23.6980667070558368 27.6535213870360010 32.1748686580101335
 23.6980667070558368 27.6535213870360010 34.9467272402613958
 21.4150555892131962 29.3122260560577388 15.5437171645025352
 21.4150555892131962 29.3122260560577388 18.3155757467538010
 21.4150555892131962 29.3122260560577388 21.0874343290050668
 21.4150555892131962 29.3122260560577388 23.8592929112563326
 21.4150555892131962 29.3122260560577388 26.6311514935076019
 21.4150555892131962 29.3122260560577388 29.4030100757588642
 21.4150555892131962 29.3122260560577388 32.1748686580101335
 21.4150555892131962 29.3122260560577388 34.9467272402613958
 19.1320444713705555 27.6535213870360010 15.5437171645025352
 19.1320444713705555 27.6535213870360010 18.3155757467538010
 19.1320444713705555 27.6535213870360010 21.0874343290050668
 19.1320444713705555 27.6535213870360010 23.8592929112563326
 19.1320444713705555 27.6535213870360010 26.6311514935076019
 19.1320444713705555 27.6535213870360010 29.4030100757588642
 19.1320444713705555 27.6535213870360010 32.1748686580101335
 19.1320444713705555 27.6535213870360010 34.9467272402613958
 16.8490333535279184 25.9948167180142669 15.5437171645025352
 16.8490333535279184 25.9948167180142669 18.3155757467538010
 16.8490333535279184 25.9948167180142669 21.0874343290050668
 16.8490333535279184 25.9948167180142669 23.8592929112563326
 16.8490333535279184 25.9948167180142669 26.6311514935076019
 16.8490333535279184 25.9948167180142669 29.4030100757588642
 16.8490333535279184 25.9948167180142669 32.1748686580101335
 16.8490333535279184 25.9948167180142669 34.9467272402613958
 14.5660222356852778 24.3361120489925327 15.5437171645025352
 14.5660222356852778 24.3361120489925327 18.3155757467538010
 14.5660222356852778 24.3361120489925327 21.0874343290050668
 14.5660222356852778 24.3361120489925327 23.8592929112563326
 14.5660222356852778 24.3361120489925327 26.6311514935076019
 14.5660222356852778 24.3361120489925327 29.4030100757588642
 14.5660222356852778 24.3361120489925327 32.1748686580101335
 14.5660222356852778 24.3361120489925327 34.9467272402613958
 12.2830111178426389 22.6774073799707949 15.5437171645025352
 12.2830111178426389 22.6774073799707949 18.3155757467538010
 12.2830111178426389 22.6774073799707949 21.0874343290050668
 12.2830111178426389 22.6774073799707949 23.8592929112563326
 12.2830111178426389 22.6774073799707949 26.6311514935076019
 12.2830111178426389 22.6774073799707949 29.4030100757588642
 12.2830111178426389 22.6774073799707949 32.1748686580101335
 12.2830111178426389 22.6774073799707949 34.9467272402613958
 13.1550437681646351 19.9935668481954814 15.5437171645025352
 13.1550437681646351 19.9935668481954814 18.3155757467538010
 13.1550437681646351 19.9935668481954814 21.0874343290050668
 13.1550437681646351 19.9935668481954814 23.8592929112563326
 13.1550437681646351 19.9935668481954814 26.6311514935076019
 13.1550437681646351 19.9935668481954814 29.4030100757588642
 13.1550437681646351 19.9935668481954814 32.1748686580101335
 13.1550437681646351 19.9935668481954814 34.9467272402613958
 14.0270764184866312 17.3097263164201678 15.5437171645025352
 14.0270764184866312 17.3097263164201678 18.3155757467538010
 14.0270764184866312 17.3097263164201678 21.0874343290050668
 14.0270764184866312 17.3097263164201678 23.8592929112563326
 14.0270764184866312 17.3097263164201678 26.6311514935076019
 14.0270764184866312 17.3097263164201678 29.4030100757588642
 14.0270764184866312 17.3097263164201678 32.1748686580101335
 14.0270764184866312 17.3097263164201678 34.9467272402613958
 14.8991090688086274 14.6258857846448542 15.5437171645025352
 14.8991090688086274 14.6258857846448542 18.3155757467538010
 14.8991090688086274 14.6258857846448542 21.0874343290050668
 14.8991090688086274 14.6258857846448542 23.8592929112563326
 14.8991090688086274 14.6258857846448542 26.6311514935076019
 14.8991090688086274 14.6258857846448542 29.4030100757588642
 14.8991090688086274 14.6258857846448542 32.1748686580101335
 14.8991090688086274 14.6258857846448542 34.9467272402613958
 15.7711417191306253 11.9420452528695407 15.5437171645025352
 15.7711417191306253 11.9420452528695407 18.3155757467538010
 15.7711417191306253 11.9420452528695407 21.0874343290050668
 15.7711417191306253 11.9420452528695407 23.8592929112563326
 15.7711417191306253 11.9420452528695407 26.6311514935076019
 15.7711417191306253 11.9420452528695407 29.4030100757588642
 15.7711417191306253 11.9420452528695407 32.1748686580101335
 15.7711417191306253 11.9420452528695407 34.9467272402613958
 18.5930986541719108 11.9420452528695407 15.5437171645025352
 18.5930986541719108 11.9420452528695407 18.3155757467538010
 18.5930986541719108 11.9420452528695407 21.0874343290050668
 18.5930986541719108 11.9420452528695407 23.8592929112563326
 18.5930986541719108 11.9420452528695407 26.6311514935076019
 18.5930986541719108 11.9420452528695407 29.4030100757588642
 18.5930986541719108 11.9420452528695407 32.1748686580101335
 18.5930986541719108 11.9420452528695407 34.9467272402613958
 21.4150555892131962 11.9420452528695407 15.5437171645025352
 21.4150555892131962 11.9420452528695407 18.3155757467538010
 21.4150555892131962 11.9420452528695407 21.0874343290050668
 21.4150555892131962 11.9420452528695407 23.8592929112563326
 21.4150555892131962 11.9420452528695407 26.6311514935076019
 21.4150555892131962 11.9420452528695407 29.4030100757588642
 21.4150555892131962 11.9420452528695407 32.1748686580101335
 21.4150555892131962 11.9420452528695407 34.9467272402613958
 24.2370125242544816 11.9420452528695389 15.5437171645025352
 24.2370125242544816 11.9420452528695389 18.3155757467538010
 24.2370125242544816 11.9420452528695389 21.0874343290050668
 24.2370125242544816 11.9420452528695389 23.8592929112563326
 24.2370125242544816 11.9420452528695389 26.6311514935076019
 24.2370125242544816 11.9420452528695389 29.4030100757588642
 24.2370125242544816 11.9420452528695389 32.1748686580101335
 24.2370125242544816 11.9420452528695389 34.9467272402613958
 27.0589694592957635 11.9420452528695389 15.5437171645025352
 27.0589694592957635 11.9420452528695389 18.3155757467538010
 27.0589694592957635 11.9420452528695389 21.0874343290050668
 27.0589694592957635 11.9420452528695389 23.8592929112563326
 27.0589694592957635 11.9420452528695389 26.6311514935076019
 27.0589694592957635 11.9420452528695389 29.4030100757588642
 27.0589694592957635 11.9420452528695389 32.1748686580101335
 27.0589694592957635 11.9420452528695389 34.9467272402613958
 27.9310021096177614 14.6258857846448507 15.5437171645025352
 27.9310021096177614 14.6258857846448507 18.3155757467538010
 27.9310021096177614 14.6258857846448507 21.0874343290050668
 27.9310021096177614 14.6258857846448507 23.8592929112563326
 27.9310021096177614 14.6258857846448507 26.6311514935076019
 27.9310021096177614 14.6258857846448507 29.4030100757588642
 27.9310021096177614 14.6258857846448507 32.1748686580101335
 27.9310021096177614 14.6258857846448507 34.9467272402613958
 28.8030347599397594 17.3097263164201678 15.5437171645025352
 28.8030347599397594 17.3097263164201678 18.3155757467538010
 28.8030347599397594 17.3097263164201678 21.0874343290050668
 28.8030347599397594 17.3097263164201678 23.8592929112563326
 28.8030347599397594 17.3097263164201678 26.6311514935076019
 28.8030347599397594 17.3097263164201678 29.4030100757588642
 28.8030347599397594 17.3097263164201678 32.1748686580101335
 28.8030347599397594 17.3097263164201678 34.9467272402613958
 29.6750674102617573 19.9935668481954778 15.5437171645025352
 29.6750674102617573 19.9935668481954778 18.3155757467538010
 29.6750674102617573 19.9935668481954778 21.0874343290050668
 29.6750674102617573 19.9935668481954778 23.8592929112563326
 29.6750674102617573 19.9935668481954778 26.6311514935076019
 29.6750674102617573 19.9935668481954778 29.4030100757588642
 29.6750674102617573 19.9935668481954778 32.1748686580101335
 29.6750674102617573 19.9935668481954778 34.9467272402613958
 32.8301111784263924 23.4192026588765714 16.9296464556281663
 32.8301111784263924 23.4192026588765714 19.7015050378794356
 32.8301111784263924 23.4192026588765714 22.4733636201307014
 32.8301111784263924 23.4192026588765714 25.2452222023819672
 32.8301111784263924 23.4192026588765714 28.0170807846332330
 32.8301111784263924 23.4192026588765714 30.7889393668844988
 32.8301111784263924 23.4192026588765714 33.5607979491357682
 30.5471000605837517 25.0779073278983091 16.9296464556281663
 30.5471000605837517 25.0779073278983091 19.7015050378794356
 30.5471000605837517 25.0779073278983091 22.4733636201307014
 30.5471000605837517 25.0779073278983091 25.2452222023819672
 30.5471000605837517 25.0779073278983091 28.0170807846332330
 30.5471000605837517 25.0779073278983091 30.7889393668844988
 30.5471000605837517 25.0779073278983091 33.5607979491357682
 28.2640889427411146 26.7366119969200433 16.9296464556281663
 28.2640889427411146 26.7366119969200433 19.7015050378794356
 28.2640889427411146 26.7366119969200433 22.4733636201307014
 28.2640889427411146 26.7366119969200433 25.2452222023819672
 28.2640889427411146 26.7366119969200433 28.0170807846332330
 28.2640889427411146 26.7366119969200433 30.7889393668844988
 28.2640889427411146 26.7366119969200433 33.5607979491357682
 25.9810778248984739 28.3953166659417775 16.9296464556281663
 25.9810778248984739 28.3953166659417775 19.7015050378794356
 25.9810778248984739 28.3953166659417775 22.4733636201307014
 25.9810778248984739 28.3953166659417775 25.2452222023819672