Au 
 1.0000000000000000
    54.3577345500310045    0.0000000000000000    0.0000000000000000
     0.0000000000000000   54.3577345500310045    0.0000000000000000
     0.0000000000000000    0.0000000000000000   54.3577345500310045
 Au 
 1415
Cartesian
 27.1788672750155058 27.1788672750155058 27.1788672750155058
 29.6329911714462924 27.1788672750155058 25.6621352944179542
 29.6329911714462924 27.1788672750155058 28.6955992556130575
 24.7247433785847193 27.1788672750155058 25.6621352944179542
 24.7247433785847193 27.1788672750155058 28.6955992556130575
 25.6621352944179542 29.6329911714462924 27.1788672750155058
 28.6955992556130575 29.6329911714462924 27.1788672750155058
 25.6621352944179542 24.7247433785847193 27.1788672750155058
 28.6955992556130575 24.7247433785847193 27.1788672750155058
 27.1788672750155058 25.6621352944179542 29.6329911714462924
 27.1788672750155058 28.6955992556130575 29.6329911714462924
 27.1788672750155058 25.6621352944179542 24.7247433785847193
 27.1788672750155058 28.6955992556130575 24.7247433785847193
 32.0871150678770789 27.1788672750155058 24.1454033138204025
 32.0871150678770789 27.1788672750155058 27.1788672750155058
 32.0871150678770789 27.1788672750155058 30.2123312362106091
 22.2706194821539327 27.1788672750155058 24.1454033138204025
 22.2706194821539327 27.1788672750155058 27.1788672750155058
 22.2706194821539327 27.1788672750155058 30.2123312362106091
 24.1454033138204025 32.0871150678770789 27.1788672750155058
 27.1788672750155058 32.0871150678770789 27.1788672750155058
 30.2123312362106091 32.0871150678770789 27.1788672750155058
 24.1454033138204025 22.2706194821539327 27.1788672750155058
 27.1788672750155058 22.2706194821539327 27.1788672750155058
 30.2123312362106091 22.2706194821539327 27.1788672750155058
 27.1788672750155058 24.1454033138204025 32.0871150678770789
 27.1788672750155058 27.1788672750155058 32.0871150678770789
 27.1788672750155058 30.2123312362106091 32.0871150678770789
 27.1788672750155058 24.1454033138204025 22.2706194821539327
 27.1788672750155058 27.1788672750155058 22.2706194821539327
 27.1788672750155058 30.2123312362106091 22.2706194821539327
 29.6329911714462924 25.6621352944179542 31.1497231520438440
 29.6329911714462924 28.6955992556130575 31.1497231520438440
 29.6329911714462924 25.6621352944179542 23.2080113979871676
 29.6329911714462924 28.6955992556130575 23.2080113979871676
 24.7247433785847193 25.6621352944179542 31.1497231520438440
 24.7247433785847193 28.6955992556130575 31.1497231520438440
 24.7247433785847193 25.6621352944179542 23.2080113979871676
 24.7247433785847193 28.6955992556130575 23.2080113979871676
 31.1497231520438440 29.6329911714462924 25.6621352944179542
 31.1497231520438440 29.6329911714462924 28.6955992556130575
 23.2080113979871676 29.6329911714462924 25.6621352944179542
 23.2080113979871676 29.6329911714462924 28.6955992556130575
 31.1497231520438440 24.7247433785847193 25.6621352944179542
 31.1497231520438440 24.7247433785847193 28.6955992556130575
 23.2080113979871676 24.7247433785847193 25.6621352944179542
 23.2080113979871676 24.7247433785847193 28.6955992556130575
 25.6621352944179542 31.1497231520438440 29.6329911714462924
 28.6955992556130575 31.1497231520438440 29.6329911714462924
 25.6621352944179542 23.2080113979871676 29.6329911714462924
 28.6955992556130575 23.2080113979871676 29.6329911714462924
 25.6621352944179542 31.1497231520438440 24.7247433785847193
 28.6955992556130575 31.1497231520438440 24.7247433785847193
 25.6621352944179542 23.2080113979871676 24.7247433785847193
 28.6955992556130575 23.2080113979871676 24.7247433785847193
 34.5412389643078654 27.1788672750155058 22.6286713332228473
 34.5412389643078654 27.1788672750155058 25.6621352944179542
 34.5412389643078654 27.1788672750155058 28.6955992556130575
 34.5412389643078654 27.1788672750155058 31.7290632168081643
 19.8164955857231462 27.1788672750155058 22.6286713332228473
 19.8164955857231462 27.1788672750155058 25.6621352944179542
 19.8164955857231462 27.1788672750155058 28.6955992556130575
 19.8164955857231462 27.1788672750155058 31.7290632168081643
 22.6286713332228473 34.5412389643078654 27.1788672750155058
 25.6621352944179542 34.5412389643078654 27.1788672750155058
 28.6955992556130575 34.5412389643078654 27.1788672750155058
 31.7290632168081643 34.5412389643078654 27.1788672750155058
 22.6286713332228473 19.8164955857231462 27.1788672750155058
 25.6621352944179542 19.8164955857231462 27.1788672750155058
 28.6955992556130575 19.8164955857231462 27.1788672750155058
 31.7290632168081643 19.8164955857231462 27.1788672750155058
 27.1788672750155058 22.6286713332228473 34.5412389643078654
 27.1788672750155058 25.6621352944179542 34.5412389643078654
 27.1788672750155058 28.6955992556130575 34.5412389643078654
 27.1788672750155058 31.7290632168081643 34.5412389643078654
 27.1788672750155058 22.6286713332228473 19.8164955857231462
 27.1788672750155058 25.6621352944179542 19.8164955857231462
 27.1788672750155058 28.6955992556130575 19.8164955857231462
 27.1788672750155058 31.7290632168081643 19.8164955857231462
 32.0871150678770789 25.6621352944179542 32.6664551326413957
 29.6329911714462924 24.1454033138204025 33.6038470484746341
 32.0871150678770789 28.6955992556130575 32.6664551326413957
 29.6329911714462924 27.1788672750155058 33.6038470484746341
 29.6329911714462924 30.2123312362106091 33.6038470484746341
 32.0871150678770789 25.6621352944179542 21.6912794173896160
 29.6329911714462924 24.1454033138204025 20.7538875015563811
 32.0871150678770789 28.6955992556130575 21.6912794173896160
 29.6329911714462924 27.1788672750155058 20.7538875015563811
 29.6329911714462924 30.2123312362106091 20.7538875015563811
 22.2706194821539327 25.6621352944179542 32.6664551326413957
 24.7247433785847193 24.1454033138204025 33.6038470484746341
 22.2706194821539327 28.6955992556130575 32.6664551326413957
 24.7247433785847193 27.1788672750155058 33.6038470484746341
 24.7247433785847193 30.2123312362106091 33.6038470484746341
 22.2706194821539327 25.6621352944179542 21.6912794173896160
 24.7247433785847193 24.1454033138204025 20.7538875015563811
 22.2706194821539327 28.6955992556130575 21.6912794173896160
 24.7247433785847193 27.1788672750155058 20.7538875015563811
 24.7247433785847193 30.2123312362106091 20.7538875015563811
 32.6664551326413957 32.0871150678770789 25.6621352944179542
 33.6038470484746341 29.6329911714462924 24.1454033138204025
 32.6664551326413957 32.0871150678770789 28.6955992556130575
 33.6038470484746341 29.6329911714462924 27.1788672750155058
 33.6038470484746341 29.6329911714462924 30.2123312362106091
 21.6912794173896160 32.0871150678770789 25.6621352944179542
 20.7538875015563811 29.6329911714462924 24.1454033138204025
 21.6912794173896160 32.0871150678770789 28.6955992556130575
 20.7538875015563811 29.6329911714462924 27.1788672750155058
 20.7538875015563811 29.6329911714462924 30.2123312362106091
 32.6664551326413957 22.2706194821539327 25.6621352944179542
 33.6038470484746341 24.7247433785847193 24.1454033138204025
 32.6664551326413957 22.2706194821539327 28.6955992556130575
 33.6038470484746341 24.7247433785847193 27.1788672750155058
 33.6038470484746341 24.7247433785847193 30.2123312362106091
 21.6912794173896160 22.2706194821539327 25.6621352944179542
 20.7538875015563811 24.7247433785847193 24.1454033138204025
 21.6912794173896160 22.2706194821539327 28.6955992556130575
 20.7538875015563811 24.7247433785847193 27.1788672750155058
 20.7538875015563811 24.7247433785847193 30.2123312362106091
 25.6621352944179542 32.6664551326413957 32.0871150678770789
 24.1454033138204025 33.6038470484746341 29.6329911714462924
 28.6955992556130575 32.6664551326413957 32.0871150678770789
 27.1788672750155058 33.6038470484746341 29.6329911714462924
 30.2123312362106091 33.6038470484746341 29.6329911714462924
 25.6621352944179542 21.6912794173896160 32.0871150678770789
 24.1454033138204025 20.7538875015563811 29.6329911714462924
 28.6955992556130575 21.6912794173896160 32.0871150678770789
 27.1788672750155058 20.7538875015563811 29.6329911714462924
 30.2123312362106091 20.7538875015563811 29.6329911714462924
 25.6621352944179542 32.6664551326413957 22.2706194821539327
 24.1454033138204025 33.6038470484746341 24.7247433785847193
 28.6955992556130575 32.6664551326413957 22.2706194821539327
 27.1788672750155058 33.6038470484746341 24.7247433785847193
 30.2123312362106091 33.6038470484746341 24.7247433785847193
 25.6621352944179542 21.6912794173896160 22.2706194821539327
 24.1454033138204025 20.7538875015563811 24.7247433785847193
 28.6955992556130575 21.6912794173896160 22.2706194821539327
 27.1788672750155058 20.7538875015563811 24.7247433785847193
 30.2123312362106091 20.7538875015563811 24.7247433785847193
 31.1497231520438440 23.2080113979871676 31.1497231520438440
 31.1497231520438440 31.1497231520438440 31.1497231520438440
 31.1497231520438440 23.2080113979871676 23.2080113979871676
 31.1497231520438440 31.1497231520438440 23.2080113979871676
 23.2080113979871676 23.2080113979871676 31.1497231520438440
 23.2080113979871676 31.1497231520438440 31.1497231520438440
 23.2080113979871676 23.2080113979871676 23.2080113979871676
 23.2080113979871676 31.1497231520438440 23.2080113979871676
 36.9953628607386520 27.1788672750155058 21.1119393526252956
 36.9953628607386520 27.1788672750155058 24.1454033138204025
 36.9953628607386520 27.1788672750155058 27.1788672750155058
 36.9953628607386520 27.1788672750155058 30.2123312362106091
 36.9953628607386520 27.1788672750155058 33.2457951974057124
 17.3623716892923596 27.1788672750155058 21.1119393526252956
 17.3623716892923596 27.1788672750155058 24.1454033138204025
 17.3623716892923596 27.1788672750155058 27.1788672750155058
 17.3623716892923596 27.1788672750155058 30.2123312362106091
 17.3623716892923596 27.1788672750155058 33.2457951974057124
 21.1119393526252956 36.9953628607386520 27.1788672750155058
 24.1454033138204025 36.9953628607386520 27.1788672750155058
 27.1788672750155058 36.9953628607386520 27.1788672750155058
 30.2123312362106091 36.9953628607386520 27.1788672750155058
 33.2457951974057124 36.9953628607386520 27.1788672750155058
 21.1119393526252956 17.3623716892923596 27.1788672750155058
 24.1454033138204025 17.3623716892923596 27.1788672750155058
 27.1788672750155058 17.3623716892923596 27.1788672750155058
 30.2123312362106091 17.3623716892923596 27.1788672750155058
 33.2457951974057124 17.3623716892923596 27.1788672750155058
 27.1788672750155058 21.1119393526252956 36.9953628607386520
 27.1788672750155058 24.1454033138204025 36.9953628607386520
 27.1788672750155058 27.1788672750155058 36.9953628607386520
 27.1788672750155058 30.2123312362106091 36.9953628607386520
 27.1788672750155058 33.2457951974057124 36.9953628607386520
 27.1788672750155058 21.1119393526252956 17.3623716892923596
 27.1788672750155058 24.1454033138204025 17.3623716892923596
 27.1788672750155058 27.1788672750155058 17.3623716892923596
 27.1788672750155058 30.2123312362106091 17.3623716892923596
 27.1788672750155058 33.2457951974057124 17.3623716892923596
 34.5412389643078654 25.6621352944179542 34.1831871132389509
 32.0871150678770789 24.1454033138204025 35.1205790290721822
 29.6329911714462924 22.6286713332228473 36.0579709449054207
 34.5412389643078654 28.6955992556130575 34.1831871132389509
 32.0871150678770789 27.1788672750155058 35.1205790290721822
 29.6329911714462924 25.6621352944179542 36.0579709449054207
 32.0871150678770789 30.2123312362106091 35.1205790290721822
 29.6329911714462924 28.6955992556130575 36.0579709449054207
 29.6329911714462924 31.7290632168081643 36.0579709449054207
 34.5412389643078654 25.6621352944179542 20.1745474367920608
 32.0871150678770789 24.1454033138204025 19.2371555209588294
 29.6329911714462924 22.6286713332228473 18.2997636051255945
 34.5412389643078654 28.6955992556130575 20.1745474367920608
 32.0871150678770789 27.1788672750155058 19.2371555209588294
 29.6329911714462924 25.6621352944179542 18.2997636051255945
 32.0871150678770789 30.2123312362106091 19.2371555209588294
 29.6329911714462924 28.6955992556130575 18.2997636051255945
 29.6329911714462924 31.7290632168081643 18.2997636051255945
 19.8164955857231462 25.6621352944179542 34.1831871132389509
 22.2706194821539327 24.1454033138204025 35.1205790290721822
 24.7247433785847193 22.6286713332228473 36.0579709449054207
 19.8164955857231462 28.6955992556130575 34.1831871132389509
 22.2706194821539327 27.1788672750155058 35.1205790290721822
 24.7247433785847193 25.6621352944179542 36.0579709449054207
 22.2706194821539327 30.2123312362106091 35.1205790290721822
 24.7247433785847193 28.6955992556130575 36.0579709449054207
 24.7247433785847193 31.7290632168081643 36.0579709449054207
 19.8164955857231462 25.6621352944179542 20.1745474367920608
 22.2706194821539327 24.1454033138204025 19.2371555209588294
 24.7247433785847193 22.6286713332228473 18.2997636051255945
 19.8164955857231462 28.6955992556130575 20.1745474367920608
 22.2706194821539327 27.1788672750155058 19.2371555209588294
 24.7247433785847193 25.6621352944179542 18.2997636051255945
 22.2706194821539327 30.2123312362106091 19.2371555209588294
 24.7247433785847193 28.6955992556130575 18.2997636051255945
 24.7247433785847193 31.7290632168081643 18.2997636051255945
 34.1831871132389509 34.5412389643078654 25.6621352944179542
 35.1205790290721822 32.0871150678770789 24.1454033138204025
 36.0579709449054207 29.6329911714462924 22.6286713332228473
 34.1831871132389509 34.5412389643078654 28.6955992556130575
 35.1205790290721822 32.0871150678770789 27.1788672750155058
 36.0579709449054207 29.6329911714462924 25.6621352944179542
 35.1205790290721822 32.0871150678770789 30.2123312362106091
 36.0579709449054207 29.6329911714462924 28.6955992556130575
 36.0579709449054207 29.6329911714462924 31.7290632168081643
 20.1745474367920608 34.5412389643078654 25.6621352944179542
 19.2371555209588294 32.0871150678770789 24.1454033138204025
 18.2997636051255945 29.6329911714462924 22.6286713332228473
 20.1745474367920608 34.5412389643078654 28.6955992556130575
 19.2371555209588294 32.0871150678770789 27.1788672750155058
 18.2997636051255945 29.6329911714462924 25.6621352944179542
 19.2371555209588294 32.0871150678770789 30.2123312362106091
 18.2997636051255945 29.6329911714462924 28.6955992556130575
 18.2997636051255945 29.6329911714462924 31.7290632168081643
 34.1831871132389509 19.8164955857231462 25.6621352944179542
 35.1205790290721822 22.2706194821539327 24.1454033138204025
 36.0579709449054207 24.7247433785847193 22.6286713332228473
 34.1831871132389509 19.8164955857231462 28.6955992556130575
 35.1205790290721822 22.2706194821539327 27.1788672750155058
 36.0579709449054207 24.7247433785847193 25.6621352944179542
 35.1205790290721822 22.2706194821539327 30.2123312362106091
 36.0579709449054207 24.7247433785847193 28.6955992556130575
 36.0579709449054207 24.7247433785847193 31.7290632168081643
 20.1745474367920608 19.8164955857231462 25.6621352944179542
 19.2371555209588294 22.2706194821539327 24.1454033138204025
 18.2997636051255945 24.7247433785847193 22.6286713332228473
 20.1745474367920608 19.8164955857231462 28.6955992556130575
 19.2371555209588294 22.2706194821539327 27.1788672750155058
 18.2997636051255945 24.7247433785847193 25.6621352944179542
 19.2371555209588294 22.2706194821539327 30.2123312362106091
 18.2997636051255945 24.7247433785847193 28.6955992556130575
 18.2997636051255945 24.7247433785847193 31.7290632168081643
 25.6621352944179542 34.1831871132389509 34.5412389643078654
 24.1454033138204025 35.1205790290721822 32.0871150678770789
 22.6286713332228473 36.0579709449054207 29.6329911714462924
 28.6955992556130575 34.1831871132389509 34.5412389643078654
 27.1788672750155058 35.1205790290721822 32.0871150678770789
 25.6621352944179542 36.0579709449054207 29.6329911714462924
 30.2123312362106091 35.1205790290721822 32.0871150678770789
 28.6955992556130575 36.0579709449054207 29.6329911714462924
 31.7290632168081643 36.0579709449054207 29.6329911714462924
 25.6621352944179542 20.1745474367920608 34.5412389643078654
 24.1454033138204025 19.2371555209588294 32.0871150678770789
 22.6286713332228473 18.2997636051255945 29.6329911714462924
 28.6955992556130575 20.1745474367920608 34.5412389643078654
 27.1788672750155058 19.2371555209588294 32.0871150678770789
 25.6621352944179542 18.2997636051255945 29.6329911714462924
 30.2123312362106091 19.2371555209588294 32.0871150678770789
 28.6955992556130575 18.2997636051255945 29.6329911714462924
 31.7290632168081643 18.2997636051255945 29.6329911714462924
 25.6621352944179542 34.1831871132389509 19.8164955857231462
 24.1454033138204025 35.1205790290721822 22.2706194821539327
 22.6286713332228473 36.0579709449054207 24.7247433785847193
 28.6955992556130575 34.1831871132389509 19.8164955857231462
 27.1788672750155058 35.1205790290721822 22.2706194821539327
 25.6621352944179542 36.0579709449054207 24.7247433785847193
 30.2123312362106091 35.1205790290721822 22.2706194821539327
 28.6955992556130575 36.0579709449054207 24.7247433785847193
 31.7290632168081643 36.0579709449054207 24.7247433785847193
 25.6621352944179542 20.1745474367920608 19.8164955857231462
 24.1454033138204025 19.2371555209588294 22.2706194821539327
 22.6286713332228473 18.2997636051255945 24.7247433785847193
 28.6955992556130575 20.1745474367920608 19.8164955857231462
 27.1788672750155058 19.2371555209588294 22.2706194821539327
 25.6621352944179542 18.2997636051255945 24.7247433785847193
 30.2123312362106091 19.2371555209588294 22.2706194821539327
 28.6955992556130575 18.2997636051255945 24.7247433785847193
 31.7290632168081643 18.2997636051255945 24.7247433785847193
 33.6038470484746341 23.2080113979871676 32.6664551326413957
 33.6038470484746341 31.1497231520438440 32.6664551326413957
 32.6664551326413957 20.7538875015563811 31.1497231520438440
 32.6664551326413957 33.6038470484746341 31.1497231520438440
 31.1497231520438440 21.6912794173896160 33.6038470484746341
 31.1497231520438440 32.6664551326413957 33.6038470484746341
 33.6038470484746341 23.2080113979871676 21.6912794173896160
 33.6038470484746341 31.1497231520438440 21.6912794173896160
 32.6664551326413957 20.7538875015563811 23.2080113979871676
 32.6664551326413957 33.6038470484746341 23.2080113979871676
 31.1497231520438440 21.6912794173896160 20.7538875015563811
 31.1497231520438440 32.6664551326413957 20.7538875015563811
 20.7538875015563811 23.2080113979871676 32.6664551326413957
 20.7538875015563811 31.1497231520438440 32.6664551326413957
 21.6912794173896160 20.7538875015563811 31.1497231520438440
 21.6912794173896160 33.6038470484746341 31.1497231520438440
 23.2080113979871676 21.6912794173896160 33.6038470484746341
 23.2080113979871676 32.6664551326413957 33.6038470484746341
 20.7538875015563811 23.2080113979871676 21.6912794173896160
 20.7538875015563811 31.1497231520438440 21.6912794173896160
 21.6912794173896160 20.7538875015563811 23.2080113979871676
 21.6912794173896160 33.6038470484746341 23.2080113979871676
 23.2080113979871676 21.6912794173896160 20.7538875015563811
 23.2080113979871676 32.6664551326413957 20.7538875015563811
 39.4494867571694385 27.1788672750155058 19.5952073720277440
 39.4494867571694385 27.1788672750155058 22.6286713332228473
 39.4494867571694385 27.1788672750155058 25.6621352944179542
 39.4494867571694385 27.1788672750155058 28.6955992556130575
 39.4494867571694385 27.1788672750155058 31.7290632168081643
 39.4494867571694385 27.1788672750155058 34.7625271780032676
 14.9082477928615749 27.1788672750155058 19.5952073720277440
 14.9082477928615749 27.1788672750155058 22.6286713332228473
 14.9082477928615749 27.1788672750155058 25.6621352944179542
 14.9082477928615749 27.1788672750155058 28.6955992556130575
 14.9082477928615749 27.1788672750155058 31.7290632168081643
 14.9082477928615749 27.1788672750155058 34.7625271780032676
 19.5952073720277440 39.4494867571694385 27.1788672750155058
 22.6286713332228473 39.4494867571694385 27.1788672750155058
 25.6621352944179542 39.4494867571694385 27.1788672750155058
 28.6955992556130575 39.4494867571694385 27.1788672750155058
 31.7290632168081643 39.4494867571694385 27.1788672750155058
 34.7625271780032676 39.4494867571694385 27.1788672750155058
 19.5952073720277440 14.9082477928615749 27.1788672750155058
 22.6286713332228473 14.9082477928615749 27.1788672750155058
 25.6621352944179542 14.9082477928615749 27.1788672750155058
 28.6955992556130575 14.9082477928615749 27.1788672750155058
 31.7290632168081643 14.9082477928615749 27.1788672750155058
 34.7625271780032676 14.9082477928615749 27.1788672750155058
 27.1788672750155058 19.5952073720277440 39.4494867571694385
 27.1788672750155058 22.6286713332228473 39.4494867571694385
 27.1788672750155058 25.6621352944179542 39.4494867571694385
 27.1788672750155058 28.6955992556130575 39.4494867571694385
 27.1788672750155058 31.7290632168081643 39.4494867571694385
 27.1788672750155058 34.7625271780032676 39.4494867571694385
 27.1788672750155058 19.5952073720277440 14.9082477928615749
 27.1788672750155058 22.6286713332228473 14.9082477928615749
 27.1788672750155058 25.6621352944179542 14.9082477928615749
 27.1788672750155058 28.6955992556130575 14.9082477928615749
 27.1788672750155058 31.7290632168081643 14.9082477928615749
 27.1788672750155058 34.7625271780032676 14.9082477928615749
 36.9953628607386520 25.6621352944179542 35.6999190938364990
 34.5412389643078654 24.1454033138204025 36.6373110096697374
 32.0871150678770789 22.6286713332228473 37.5747029255029688
 29.6329911714462924 21.1119393526252956 38.5120948413362072
 36.9953628607386520 28.6955992556130575 35.6999190938364990
 34.5412389643078654 27.1788672750155058 36.6373110096697374
 32.0871150678770789 25.6621352944179542 37.5747029255029688
 29.6329911714462924 24.1454033138204025 38.5120948413362072
 34.5412389643078654 30.2123312362106091 36.6373110096697374
 32.0871150678770789 28.6955992556130575 37.5747029255029688
 29.6329911714462924 27.1788672750155058 38.5120948413362072
 32.0871150678770789 31.7290632168081643 37.5747029255029688
 29.6329911714462924 30.2123312362106091 38.5120948413362072
 29.6329911714462924 33.2457951974057124 38.5120948413362072
 36.9953628607386520 25.6621352944179542 18.6578154561945091
 34.5412389643078654 24.1454033138204025 17.7204235403612742
 32.0871150678770789 22.6286713332228473 16.7830316245280429
 29.6329911714462924 21.1119393526252956 15.8456397086948080
 36.9953628607386520 28.6955992556130575 18.6578154561945091
 34.5412389643078654 27.1788672750155058 17.7204235403612742
 32.0871150678770789 25.6621352944179542 16.7830316245280429
 29.6329911714462924 24.1454033138204025 15.8456397086948080
 34.5412389643078654 30.2123312362106091 17.7204235403612742
 32.0871150678770789 28.6955992556130575 16.7830316245280429
 29.6329911714462924 27.1788672750155058 15.8456397086948080
 32.0871150678770789 31.7290632168081643 16.7830316245280429
 29.6329911714462924 30.2123312362106091 15.8456397086948080
 29.6329911714462924 33.2457951974057124 15.8456397086948080
 17.3623716892923596 25.6621352944179542 35.6999190938364990
 19.8164955857231462 24.1454033138204025 36.6373110096697374
 22.2706194821539327 22.6286713332228473 37.5747029255029688
 24.7247433785847193 21.1119393526252956 38.5120948413362072
 17.3623716892923596 28.6955992556130575 35.6999190938364990
 19.8164955857231462 27.1788672750155058 36.6373110096697374
 22.2706194821539327 25.6621352944179542 37.5747029255029688
 24.7247433785847193 24.1454033138204025 38.5120948413362072
 19.8164955857231462 30.2123312362106091 36.6373110096697374
 22.2706194821539327 28.6955992556130575 37.5747029255029688
 24.7247433785847193 27.1788672750155058 38.5120948413362072
 22.2706194821539327 31.7290632168081643 37.5747029255029688
 24.7247433785847193 30.2123312362106091 38.5120948413362072
 24.7247433785847193 33.2457951974057124 38.5120948413362072
 17.3623716892923596 25.6621352944179542 18.6578154561945091
 19.8164955857231462 24.1454033138204025 17.7204235403612742
 22.2706194821539327 22.6286713332228473 16.7830316245280429
 24.7247433785847193 21.1119393526252956 15.8456397086948080
 17.3623716892923596 28.6955992556130575 18.6578154561945091
 19.8164955857231462 27.1788672750155058 17.7204235403612742
 22.2706194821539327 25.6621352944179542 16.7830316245280429
 24.7247433785847193 24.1454033138204025 15.8456397086948080
 19.8164955857231462 30.2123312362106091 17.7204235403612742
 22.2706194821539327 28.6955992556130575 16.7830316245280429
 24.7247433785847193 27.1788672750155058 15.8456397086948080
 22.2706194821539327 31.7290632168081643 16.7830316245280429
 24.7247433785847193 30.2123312362106091 15.8456397086948080
 24.7247433785847193 33.2457951974057124 15.8456397086948080
 35.6999190938364990 36.9953628607386520 25.6621352944179542
 36.6373110096697374 34.5412389643078654 24.1454033138204025
 37.5747029255029688 32.0871150678770789 22.6286713332228473
 38.5120948413362072 29.6329911714462924 21.1119393526252956
 35.6999190938364990 36.9953628607386520 28.6955992556130575
 36.6373110096697374 34.5412389643078654 27.1788672750155058
 37.5747029255029688 32.0871150678770789 25.6621352944179542
 38.5120948413362072 29.6329911714462924 24.1454033138204025
 36.6373110096697374 34.5412389643078654 30.2123312362106091
 37.5747029255029688 32.0871150678770789 28.6955992556130575
 38.5120948413362072 29.6329911714462924 27.1788672750155058
 37.5747029255029688 32.0871150678770789 31.7290632168081643
 38.5120948413362072 29.6329911714462924 30.2123312362106091
 38.5120948413362072 29.6329911714462924 33.2457951974057124
 18.6578154561945091 36.9953628607386520 25.6621352944179542
 17.7204235403612742 34.5412389643078654 24.1454033138204025
 16.7830316245280429 32.0871150678770789 22.6286713332228473
 15.8456397086948080 29.6329911714462924 21.1119393526252956
 18.6578154561945091 36.9953628607386520 28.6955992556130575
 17.7204235403612742 34.5412389643078654 27.1788672750155058
 16.7830316245280429 32.0871150678770789 25.6621352944179542
 15.8456397086948080 29.6329911714462924 24.1454033138204025
 17.7204235403612742 34.5412389643078654 30.2123312362106091
 16.7830316245280429 32.0871150678770789 28.6955992556130575
 15.8456397086948080 29.6329911714462924 27.1788672750155058
 16.7830316245280429 32.0871150678770789 31.7290632168081643
 15.8456397086948080 29.6329911714462924 30.2123312362106091
 15.8456397086948080 29.6329911714462924 33.2457951974057124
 35.6999190938364990 17.3623716892923596 25.6621352944179542
 36.6373110096697374 19.8164955857231462 24.1454033138204025
 37.5747029255029688 22.2706194821539327 22.6286713332228473
 38.5120948413362072 24.7247433785847193 21.1119393526252956
 35.6999190938364990 17.3623716892923596 28.6955992556130575
 36.6373110096697374 19.8164955857231462 27.1788672750155058
 37.5747029255029688 22.2706194821539327 25.6621352944179542
 38.5120948413362072 24.7247433785847193 24.1454033138204025
 36.6373110096697374 19.8164955857231462 30.2123312362106091
 37.5747029255029688 22.2706194821539327 28.6955992556130575
 38.5120948413362072 24.7247433785847193 27.1788672750155058
 37.5747029255029688 22.2706194821539327 31.7290632168081643
 38.5120948413362072 24.7247433785847193 30.2123312362106091
 38.5120948413362072 24.7247433785847193 33.2457951974057124
 18.6578154561945091 17.3623716892923596 25.6621352944179542
 17.7204235403612742 19.8164955857231462 24.1454033138204025
 16.7830316245280429 22.2706194821539327 22.6286713332228473
 15.8456397086948080 24.7247433785847193 21.1119393526252956
 18.6578154561945091 17.3623716892923596 28.6955992556130575
 17.7204235403612742 19.8164955857231462 27.1788672750155058
 16.7830316245280429 22.2706194821539327 25.6621352944179542
 15.8456397086948080 24.7247433785847193 24.1454033138204025
 17.7204235403612742 19.8164955857231462 30.2123312362106091
 16.7830316245280429 22.2706194821539327 28.6955992556130575
 15.8456397086948080 24.7247433785847193 27.1788672750155058
 16.7830316245280429 22.2706194821539327 31.7290632168081643
 15.8456397086948080 24.7247433785847193 30.2123312362106091
 15.8456397086948080 24.7247433785847193 33.2457951974057124
 25.6621352944179542 35.6999190938364990 36.9953628607386520
 24.1454033138204025 36.6373110096697374 34.5412389643078654
 22.6286713332228473 37.5747029255029688 32.0871150678770789
 21.1119393526252956 38.5120948413362072 29.6329911714462924
 28.6955992556130575 35.6999190938364990 36.9953628607386520
 27.1788672750155058 36.6373110096697374 34.5412389643078654
 25.6621352944179542 37.5747029255029688 32.0871150678770789
 24.1454033138204025 38.5120948413362072 29.6329911714462924
 30.2123312362106091 36.6373110096697374 34.5412389643078654
 28.6955992556130575 37.5747029255029688 32.0871150678770789
 27.1788672750155058 38.5120948413362072 29.6329911714462924
 31.7290632168081643 37.5747029255029688 32.0871150678770789
 30.2123312362106091 38.5120948413362072 29.6329911714462924
 33.2457951974057124 38.5120948413362072 29.6329911714462924
 25.6621352944179542 18.6578154561945091 36.9953628607386520
 24.1454033138204025 17.7204235403612742 34.5412389643078654
 22.6286713332228473 16.7830316245280429 32.0871150678770789
 21.1119393526252956 15.8456397086948080 29.6329911714462924
 28.6955992556130575 18.6578154561945091 36.9953628607386520
 27.1788672750155058 17.7204235403612742 34.5412389643078654
 25.6621352944179542 16.7830316245280429 32.0871150678770789
 24.1454033138204025 15.8456397086948080 29.6329911714462924
 30.2123312362106091 17.7204235403612742 34.5412389643078654
 28.6955992556130575 16.7830316245280429 32.0871150678770789
 27.1788672750155058 15.8456397086948080 29.6329911714462924
 31.7290632168081643 16.7830316245280429 32.0871150678770789
 30.2123312362106091 15.8456397086948080 29.6329911714462924
 33.2457951974057124 15.8456397086948080 29.6329911714462924
 25.6621352944179542 35.6999190938364990 17.3623716892923596
 24.1454033138204025 36.6373110096697374 19.8164955857231462