Pt 
 1.0000000000000000
    39.6000000000000014    0.0000000000000000    0.0000000000000000
     0.0000000000000000   39.6000000000000014    0.0000000000000000
     0.0000000000000000    0.0000000000000000   39.6000000000000014
 Pt 
 225
Cartesian
 10.0000000000000000 17.8399999999999999 19.7999999999999972
 10.0000000000000000 19.7999999999999972 17.8399999999999999
 10.0000000000000000 19.7999999999999972 21.7599999999999980
 10.0000000000000000 21.7599999999999980 19.7999999999999972
 13.9199999999999982 13.9199999999999982 19.7999999999999972
 11.9599999999999991 17.8399999999999999 17.8399999999999999
 13.9199999999999982 15.8799999999999990 17.8399999999999999
 13.9199999999999982 17.8399999999999999 15.8799999999999990
 11.9599999999999991 15.8799999999999990 19.7999999999999972
 11.9599999999999991 17.8399999999999999 21.7599999999999980
 13.9199999999999982 15.8799999999999990 21.7599999999999980
 13.9199999999999982 17.8399999999999999 19.7999999999999972
 13.9199999999999982 17.8399999999999999 23.7199999999999989
 13.9199999999999982 19.7999999999999972 13.9199999999999982
 11.9599999999999991 19.7999999999999972 15.8799999999999990
 11.9599999999999991 21.7599999999999980 17.8399999999999999
 13.9199999999999982 19.7999999999999972 17.8399999999999999
 13.9199999999999982 21.7599999999999980 15.8799999999999990
 11.9599999999999991 19.7999999999999972 19.7999999999999972
 11.9599999999999991 21.7599999999999980 21.7599999999999980
 13.9199999999999982 19.7999999999999972 21.7599999999999980
 13.9199999999999982 21.7599999999999980 19.7999999999999972
 11.9599999999999991 19.7999999999999972 23.7199999999999989
 13.9199999999999982 19.7999999999999972 25.6799999999999997
 13.9199999999999982 21.7599999999999980 23.7199999999999989
 13.9199999999999982 23.7199999999999989 17.8399999999999999
 11.9599999999999991 23.7199999999999989 19.7999999999999972
 13.9199999999999982 23.7199999999999989 21.7599999999999980
 13.9199999999999982 25.6799999999999997 19.7999999999999972
 17.8399999999999999 10.0000000000000000 19.7999999999999972
 15.8799999999999990 13.9199999999999982 17.8399999999999999
 17.8399999999999999 11.9599999999999991 17.8399999999999999
 17.8399999999999999 13.9199999999999982 15.8799999999999990
 15.8799999999999990 11.9599999999999991 19.7999999999999972
 15.8799999999999990 13.9199999999999982 21.7599999999999980
 17.8399999999999999 11.9599999999999991 21.7599999999999980
 17.8399999999999999 13.9199999999999982 19.7999999999999972
 17.8399999999999999 13.9199999999999982 23.7199999999999989
 15.8799999999999990 17.8399999999999999 13.9199999999999982
 17.8399999999999999 15.8799999999999990 13.9199999999999982
 17.8399999999999999 17.8399999999999999 11.9599999999999991
 15.8799999999999990 15.8799999999999990 15.8799999999999990
 15.8799999999999990 17.8399999999999999 17.8399999999999999
 17.8399999999999999 15.8799999999999990 17.8399999999999999
 17.8399999999999999 17.8399999999999999 15.8799999999999990
 15.8799999999999990 15.8799999999999990 19.7999999999999972
 15.8799999999999990 17.8399999999999999 21.7599999999999980
 17.8399999999999999 15.8799999999999990 21.7599999999999980
 17.8399999999999999 17.8399999999999999 19.7999999999999972
 15.8799999999999990 15.8799999999999990 23.7199999999999989
 15.8799999999999990 17.8399999999999999 25.6799999999999997
 17.8399999999999999 15.8799999999999990 25.6799999999999997
 17.8399999999999999 17.8399999999999999 23.7199999999999989
 17.8399999999999999 17.8399999999999999 27.6400000000000006
 17.8399999999999999 19.7999999999999972 10.0000000000000000
 15.8799999999999990 19.7999999999999972 11.9599999999999991
 15.8799999999999990 21.7599999999999980 13.9199999999999982
 17.8399999999999999 19.7999999999999972 13.9199999999999982
 17.8399999999999999 21.7599999999999980 11.9599999999999991
 15.8799999999999990 19.7999999999999972 15.8799999999999990
 15.8799999999999990 21.7599999999999980 17.8399999999999999
 17.8399999999999999 19.7999999999999972 17.8399999999999999
 17.8399999999999999 21.7599999999999980 15.8799999999999990
 15.8799999999999990 19.7999999999999972 19.7999999999999972
 15.8799999999999990 21.7599999999999980 21.7599999999999980
 17.8399999999999999 19.7999999999999972 21.7599999999999980
 17.8399999999999999 21.7599999999999980 19.7999999999999972
 15.8799999999999990 19.7999999999999972 23.7199999999999989
 15.8799999999999990 21.7599999999999980 25.6799999999999997
 17.8399999999999999 19.7999999999999972 25.6799999999999997
 17.8399999999999999 21.7599999999999980 23.7199999999999989
 15.8799999999999990 19.7999999999999972 27.6400000000000006
 17.8399999999999999 19.7999999999999972 29.6000000000000014
 17.8399999999999999 21.7599999999999980 27.6400000000000006
 17.8399999999999999 23.7199999999999989 13.9199999999999982
 15.8799999999999990 23.7199999999999989 15.8799999999999990
 15.8799999999999990 25.6799999999999997 17.8399999999999999
 17.8399999999999999 23.7199999999999989 17.8399999999999999
 17.8399999999999999 25.6799999999999997 15.8799999999999990
 15.8799999999999990 23.7199999999999989 19.7999999999999972
 15.8799999999999990 25.6799999999999997 21.7599999999999980
 17.8399999999999999 23.7199999999999989 21.7599999999999980
 17.8399999999999999 25.6799999999999997 19.7999999999999972
 15.8799999999999990 23.7199999999999989 23.7199999999999989
 17.8399999999999999 23.7199999999999989 25.6799999999999997
 17.8399999999999999 25.6799999999999997 23.7199999999999989
 17.8399999999999999 27.6400000000000006 17.8399999999999999
 15.8799999999999990 27.6400000000000006 19.7999999999999972
 17.8399999999999999 27.6400000000000006 21.7599999999999980
 17.8399999999999999 29.6000000000000014 19.7999999999999972
 19.7999999999999972 10.0000000000000000 17.8399999999999999
 19.7999999999999972 10.0000000000000000 21.7599999999999980
 21.7599999999999980 10.0000000000000000 19.7999999999999972
 19.7999999999999972 13.9199999999999982 13.9199999999999982
 19.7999999999999972 11.9599999999999991 15.8799999999999990
 19.7999999999999972 13.9199999999999982 17.8399999999999999
 21.7599999999999980 11.9599999999999991 17.8399999999999999
 21.7599999999999980 13.9199999999999982 15.8799999999999990
 19.7999999999999972 11.9599999999999991 19.7999999999999972
 19.7999999999999972 13.9199999999999982 21.7599999999999980
 21.7599999999999980 11.9599999999999991 21.7599999999999980
 21.7599999999999980 13.9199999999999982 19.7999999999999972
 19.7999999999999972 11.9599999999999991 23.7199999999999989
 19.7999999999999972 13.9199999999999982 25.6799999999999997
 21.7599999999999980 13.9199999999999982 23.7199999999999989
 19.7999999999999972 17.8399999999999999 10.0000000000000000
 19.7999999999999972 15.8799999999999990 11.9599999999999991
 19.7999999999999972 17.8399999999999999 13.9199999999999982
 21.7599999999999980 15.8799999999999990 13.9199999999999982
 21.7599999999999980 17.8399999999999999 11.9599999999999991
 19.7999999999999972 15.8799999999999990 15.8799999999999990
 19.7999999999999972 17.8399999999999999 17.8399999999999999
 21.7599999999999980 15.8799999999999990 17.8399999999999999
 21.7599999999999980 17.8399999999999999 15.8799999999999990
 19.7999999999999972 15.8799999999999990 19.7999999999999972
 19.7999999999999972 17.8399999999999999 21.7599999999999980
 21.7599999999999980 15.8799999999999990 21.7599999999999980
 21.7599999999999980 17.8399999999999999 19.7999999999999972
 19.7999999999999972 15.8799999999999990 23.7199999999999989
 19.7999999999999972 17.8399999999999999 25.6799999999999997
 21.7599999999999980 15.8799999999999990 25.6799999999999997
 21.7599999999999980 17.8399999999999999 23.7199999999999989
 19.7999999999999972 15.8799999999999990 27.6400000000000006
 19.7999999999999972 17.8399999999999999 29.6000000000000014
 21.7599999999999980 17.8399999999999999 27.6400000000000006
 19.7999999999999972 21.7599999999999980 10.0000000000000000
 21.7599999999999980 19.7999999999999972 10.0000000000000000
 19.7999999999999972 19.7999999999999972 11.9599999999999991
 19.7999999999999972 21.7599999999999980 13.9199999999999982
 21.7599999999999980 19.7999999999999972 13.9199999999999982
 21.7599999999999980 21.7599999999999980 11.9599999999999991
 19.7999999999999972 19.7999999999999972 15.8799999999999990
 19.7999999999999972 21.7599999999999980 17.8399999999999999
 21.7599999999999980 19.7999999999999972 17.8399999999999999
 21.7599999999999980 21.7599999999999980 15.8799999999999990
 19.7999999999999972 19.7999999999999972 19.7999999999999972
 19.7999999999999972 21.7599999999999980 21.7599999999999980
 21.7599999999999980 19.7999999999999972 21.7599999999999980
 21.7599999999999980 21.7599999999999980 19.7999999999999972
 19.7999999999999972 19.7999999999999972 23.7199999999999989
 19.7999999999999972 21.7599999999999980 25.6799999999999997
 21.7599999999999980 19.7999999999999972 25.6799999999999997
 21.7599999999999980 21.7599999999999980 23.7199999999999989
 19.7999999999999972 19.7999999999999972 27.6400000000000006
 19.7999999999999972 21.7599999999999980 29.6000000000000014
 21.7599999999999980 19.7999999999999972 29.6000000000000014
 21.7599999999999980 21.7599999999999980 27.6400000000000006
 19.7999999999999972 23.7199999999999989 11.9599999999999991
 19.7999999999999972 25.6799999999999997 13.9199999999999982
 21.7599999999999980 23.7199999999999989 13.9199999999999982
 19.7999999999999972 23.7199999999999989 15.8799999999999990
 19.7999999999999972 25.6799999999999997 17.8399999999999999
 21.7599999999999980 23.7199999999999989 17.8399999999999999
 21.7599999999999980 25.6799999999999997 15.8799999999999990
 19.7999999999999972 23.7199999999999989 19.7999999999999972
 19.7999999999999972 25.6799999999999997 21.7599999999999980
 21.7599999999999980 23.7199999999999989 21.7599999999999980
 21.7599999999999980 25.6799999999999997 19.7999999999999972
 19.7999999999999972 23.7199999999999989 23.7199999999999989
 19.7999999999999972 25.6799999999999997 25.6799999999999997
 21.7599999999999980 23.7199999999999989 25.6799999999999997
 21.7599999999999980 25.6799999999999997 23.7199999999999989
 19.7999999999999972 23.7199999999999989 27.6400000000000006
 19.7999999999999972 27.6400000000000006 15.8799999999999990
 19.7999999999999972 29.6000000000000014 17.8399999999999999
 21.7599999999999980 27.6400000000000006 17.8399999999999999
 19.7999999999999972 27.6400000000000006 19.7999999999999972
 19.7999999999999972 29.6000000000000014 21.7599999999999980
 21.7599999999999980 27.6400000000000006 21.7599999999999980
 21.7599999999999980 29.6000000000000014 19.7999999999999972
 19.7999999999999972 27.6400000000000006 23.7199999999999989
 23.7199999999999989 13.9199999999999982 17.8399999999999999
 23.7199999999999989 11.9599999999999991 19.7999999999999972
 23.7199999999999989 13.9199999999999982 21.7599999999999980
 25.6799999999999997 13.9199999999999982 19.7999999999999972
 23.7199999999999989 17.8399999999999999 13.9199999999999982
 23.7199999999999989 15.8799999999999990 15.8799999999999990
 23.7199999999999989 17.8399999999999999 17.8399999999999999
 25.6799999999999997 15.8799999999999990 17.8399999999999999
 25.6799999999999997 17.8399999999999999 15.8799999999999990
 23.7199999999999989 15.8799999999999990 19.7999999999999972
 23.7199999999999989 17.8399999999999999 21.7599999999999980
 25.6799999999999997 15.8799999999999990 21.7599999999999980
 25.6799999999999997 17.8399999999999999 19.7999999999999972
 23.7199999999999989 15.8799999999999990 23.7199999999999989
 23.7199999999999989 17.8399999999999999 25.6799999999999997
 25.6799999999999997 17.8399999999999999 23.7199999999999989
 23.7199999999999989 19.7999999999999972 11.9599999999999991
 23.7199999999999989 21.7599999999999980 13.9199999999999982
 25.6799999999999997 19.7999999999999972 13.9199999999999982
 23.7199999999999989 19.7999999999999972 15.8799999999999990
 23.7199999999999989 21.7599999999999980 17.8399999999999999
 25.6799999999999997 19.7999999999999972 17.8399999999999999
 25.6799999999999997 21.7599999999999980 15.8799999999999990
 23.7199999999999989 19.7999999999999972 19.7999999999999972
 23.7199999999999989 21.7599999999999980 21.7599999999999980
 25.6799999999999997 19.7999999999999972 21.7599999999999980
 25.6799999999999997 21.7599999999999980 19.7999999999999972
 23.7199999999999989 19.7999999999999972 23.7199999999999989
 23.7199999999999989 21.7599999999999980 25.6799999999999997
 25.6799999999999997 19.7999999999999972 25.6799999999999997
 25.6799999999999997 21.7599999999999980 23.7199999999999989
 23.7199999999999989 19.7999999999999972 27.6400000000000006
 23.7199999999999989 23.7199999999999989 15.8799999999999990
 23.7199999999999989 25.6799999999999997 17.8399999999999999
 25.6799999999999997 23.7199999999999989 17.8399999999999999
 23.7199999999999989 23.7199999999999989 19.7999999999999972
 23.7199999999999989 25.6799999999999997 21.7599999999999980
 25.6799999999999997 23.7199999999999989 21.7599999999999980
 25.6799999999999997 25.6799999999999997 19.7999999999999972
 23.7199999999999989 23.7199999999999989 23.7199999999999989
 23.7199999999999989 27.6400000000000006 19.7999999999999972
 27.6400000000000006 17.8399999999999999 17.8399999999999999
 27.6400000000000006 15.8799999999999990 19.7999999999999972
 27.6400000000000006 17.8399999999999999 21.7599999999999980
 29.6000000000000014 17.8399999999999999 19.7999999999999972
 27.6400000000000006 19.7999999999999972 15.8799999999999990
 27.6400000000000006 21.7599999999999980 17.8399999999999999
 29.6000000000000014 19.7999999999999972 17.8399999999999999
 27.6400000000000006 19.7999999999999972 19.7999999999999972
 27.6400000000000006 21.7599999999999980 21.7599999999999980
 29.6000000000000014 19.7999999999999972 21.7599999999999980
 29.6000000000000014 21.7599999999999980 19.7999999999999972
 27.6400000000000006 19.7999999999999972 23.7199999999999989
 27.6400000000000006 23.7199999999999989 19.7999999999999972
