Au 
 1.0000000000000000
    32.4419198311633465    0.0000000000000000    0.0000000000000000
     0.0000000000000000   31.8329689306497983    0.0000000000000000
     0.0000000000000000    0.0000000000000000   37.3099740034466834
 Au 
 127
Cartesian
 16.2209599155816733 16.0639372181436499 10.0000000000000000
 16.2209599155816733 16.0639372181436499 12.8849956672411139
 16.2209599155816733 16.0639372181436499 15.7699913344822278
 16.2209599155816733 16.0639372181436499 18.6549870017233417
 16.2209599155816733 16.0639372181436499 21.5399826689644556
 16.2209599155816733 16.0639372181436499 24.4249783362055695
 16.2209599155816733 16.0639372181436499 27.3099740034466834
 18.5971551606831973 16.8360098553721116 11.4424978336205569
 18.5971551606831973 16.8360098553721116 14.3274935008616708
 18.5971551606831973 16.8360098553721116 17.2124891681027847
 18.5971551606831973 16.8360098553721116 20.0974848353438986
 18.5971551606831973 16.8360098553721116 22.9824805025850125
 18.5971551606831973 16.8360098553721116 25.8674761698261264
 16.2209599155816733 18.5624167557824933 11.4424978336205569
 16.2209599155816733 18.5624167557824933 14.3274935008616708
 16.2209599155816733 18.5624167557824933 17.2124891681027847
 16.2209599155816733 18.5624167557824933 20.0974848353438986
 16.2209599155816733 18.5624167557824933 22.9824805025850125
 16.2209599155816733 18.5624167557824933 25.8674761698261264
 13.8447646704801510 16.8360098553721116 11.4424978336205569
 13.8447646704801510 16.8360098553721116 14.3274935008616708
 13.8447646704801510 16.8360098553721116 17.2124891681027847
 13.8447646704801510 16.8360098553721116 20.0974848353438986
 13.8447646704801510 16.8360098553721116 22.9824805025850125
 13.8447646704801510 16.8360098553721116 25.8674761698261264
 14.7523904902030445 14.0426248120957666 11.4424978336205569
 14.7523904902030445 14.0426248120957666 14.3274935008616708
 14.7523904902030445 14.0426248120957666 17.2124891681027847
 14.7523904902030445 14.0426248120957666 20.0974848353438986
 14.7523904902030445 14.0426248120957666 22.9824805025850125
 14.7523904902030445 14.0426248120957666 25.8674761698261264
 17.6895293409603021 14.0426248120957666 11.4424978336205569
 17.6895293409603021 14.0426248120957666 14.3274935008616708
 17.6895293409603021 14.0426248120957666 17.2124891681027847
 17.6895293409603021 14.0426248120957666 20.0974848353438986
 17.6895293409603021 14.0426248120957666 22.9824805025850125
 17.6895293409603021 14.0426248120957666 25.8674761698261264
 20.9733504057847178 17.6080824926005732 12.8849956672411139
 20.9733504057847178 17.6080824926005732 15.7699913344822278
 20.9733504057847178 17.6080824926005732 18.6549870017233417
 20.9733504057847178 17.6080824926005732 21.5399826689644556
 20.9733504057847178 17.6080824926005732 24.4249783362055695
 18.5971551606831973 19.3344893930109549 12.8849956672411139
 18.5971551606831973 19.3344893930109549 15.7699913344822278
 18.5971551606831973 19.3344893930109549 18.6549870017233417
 18.5971551606831973 19.3344893930109549 21.5399826689644556
 18.5971551606831973 19.3344893930109549 24.4249783362055695
 16.2209599155816733 21.0608962934213331 12.8849956672411139
 16.2209599155816733 21.0608962934213331 15.7699913344822278
 16.2209599155816733 21.0608962934213331 18.6549870017233417
 16.2209599155816733 21.0608962934213331 21.5399826689644556
 16.2209599155816733 21.0608962934213331 24.4249783362055695
 13.8447646704801510 19.3344893930109549 12.8849956672411139
 13.8447646704801510 19.3344893930109549 15.7699913344822278
 13.8447646704801510 19.3344893930109549 18.6549870017233417
 13.8447646704801510 19.3344893930109549 21.5399826689644556
 13.8447646704801510 19.3344893930109549 24.4249783362055695
 11.4685694253786288 17.6080824926005768 12.8849956672411139
 11.4685694253786288 17.6080824926005768 15.7699913344822278
 11.4685694253786288 17.6080824926005768 18.6549870017233417
 11.4685694253786288 17.6080824926005768 21.5399826689644556
 11.4685694253786288 17.6080824926005768 24.4249783362055695
 12.3761952451015222 14.8146974493242300 12.8849956672411139
 12.3761952451015222 14.8146974493242300 15.7699913344822278
 12.3761952451015222 14.8146974493242300 18.6549870017233417
 12.3761952451015222 14.8146974493242300 21.5399826689644556
 12.3761952451015222 14.8146974493242300 24.4249783362055695
 13.2838210648244157 12.0213124060478833 12.8849956672411139
 13.2838210648244157 12.0213124060478833 15.7699913344822278
 13.2838210648244157 12.0213124060478833 18.6549870017233417
 13.2838210648244157 12.0213124060478833 21.5399826689644556
 13.2838210648244157 12.0213124060478833 24.4249783362055695
 16.2209599155816733 12.0213124060478815 12.8849956672411139
 16.2209599155816733 12.0213124060478815 15.7699913344822278
 16.2209599155816733 12.0213124060478815 18.6549870017233417
 16.2209599155816733 12.0213124060478815 21.5399826689644556
 16.2209599155816733 12.0213124060478815 24.4249783362055695
 19.1580987663389273 12.0213124060478815 12.8849956672411139
 19.1580987663389273 12.0213124060478815 15.7699913344822278
 19.1580987663389273 12.0213124060478815 18.6549870017233417
 19.1580987663389273 12.0213124060478815 21.5399826689644556
 19.1580987663389273 12.0213124060478815 24.4249783362055695
 20.0657245860618225 14.8146974493242283 12.8849956672411139
 20.0657245860618225 14.8146974493242283 15.7699913344822278
 20.0657245860618225 14.8146974493242283 18.6549870017233417
 20.0657245860618225 14.8146974493242283 21.5399826689644556
 20.0657245860618225 14.8146974493242283 24.4249783362055695
 20.9733504057847178 20.1065620302394166 14.3274935008616708
 20.9733504057847178 20.1065620302394166 17.2124891681027847
 20.9733504057847178 20.1065620302394166 20.0974848353438986
 20.9733504057847178 20.1065620302394166 22.9824805025850125
 18.5971551606831973 21.8329689306497947 14.3274935008616708
 18.5971551606831973 21.8329689306497947 17.2124891681027847
 18.5971551606831973 21.8329689306497947 20.0974848353438986
 18.5971551606831973 21.8329689306497947 22.9824805025850125
 13.8447646704801510 21.8329689306497983 14.3274935008616708
 13.8447646704801510 21.8329689306497983 17.2124891681027847
 13.8447646704801510 21.8329689306497983 20.0974848353438986
 13.8447646704801510 21.8329689306497983 22.9824805025850125
 11.4685694253786288 20.1065620302394166 14.3274935008616708
 11.4685694253786288 20.1065620302394166 17.2124891681027847
 11.4685694253786288 20.1065620302394166 20.0974848353438986
 11.4685694253786288 20.1065620302394166 22.9824805025850125
 10.0000000000000000 15.5867700865526935 14.3274935008616708
 10.0000000000000000 15.5867700865526935 17.2124891681027847
 10.0000000000000000 15.5867700865526935 20.0974848353438986
 10.0000000000000000 15.5867700865526935 22.9824805025850125
 10.9076258197228935 12.7933850432763450 14.3274935008616708
 10.9076258197228935 12.7933850432763450 17.2124891681027847
 10.9076258197228935 12.7933850432763450 20.0974848353438986
 10.9076258197228935 12.7933850432763450 22.9824805025850125
 14.7523904902030445  9.9999999999999982 14.3274935008616708
 14.7523904902030445  9.9999999999999982 17.2124891681027847
 14.7523904902030445  9.9999999999999982 20.0974848353438986
 14.7523904902030445  9.9999999999999982 22.9824805025850125
 17.6895293409602985  9.9999999999999982 14.3274935008616708
 17.6895293409602985  9.9999999999999982 17.2124891681027847
 17.6895293409602985  9.9999999999999982 20.0974848353438986
 17.6895293409602985  9.9999999999999982 22.9824805025850125
 21.5342940114404513 12.7933850432763450 14.3274935008616708
 21.5342940114404513 12.7933850432763450 17.2124891681027847
 21.5342940114404513 12.7933850432763450 20.0974848353438986
 21.5342940114404513 12.7933850432763450 22.9824805025850125
 22.4419198311633465 15.5867700865526899 14.3274935008616708
 22.4419198311633465 15.5867700865526899 17.2124891681027847
 22.4419198311633465 15.5867700865526899 20.0974848353438986
 22.4419198311633465 15.5867700865526899 22.9824805025850125
