Au 
 1.0000000000000000
    24.0799999999999983    0.0000000000000000    0.0000000000000000
     0.0000000000000000   24.0799999999999983    0.0000000000000000
     0.0000000000000000    0.0000000000000000   24.0799999999999983
 Au 
   6
Cartesian
 10.0000000000000000 12.0399999999999991 12.0399999999999991
 12.0399999999999991 10.0000000000000000 12.0399999999999991
 12.0399999999999991 12.0399999999999991 10.0000000000000000
 12.0399999999999991 12.0399999999999991 14.0799999999999983
 12.0399999999999991 14.0799999999999983 12.0399999999999991
 14.0799999999999983 12.0399999999999991 12.0399999999999991
