Pt 
 1.0000000000000000
    48.2946049235549424    0.0000000000000000    0.0000000000000000
     0.0000000000000000   48.2946049235549424    0.0000000000000000
     0.0000000000000000    0.0000000000000000   48.2946049235549424
 Pt 
 923
Cartesian
 24.1473024617774712 24.1473024617774712 24.1473024617774712
 26.5051862054070497 24.1473024617774712 22.6900501666935490
 26.5051862054070497 24.1473024617774712 25.6045547568613934
 21.7894187181478927 24.1473024617774712 22.6900501666935490
 21.7894187181478927 24.1473024617774712 25.6045547568613934
 22.6900501666935490 26.5051862054070497 24.1473024617774712
 25.6045547568613934 26.5051862054070497 24.1473024617774712
 22.6900501666935490 21.7894187181478927 24.1473024617774712
 25.6045547568613934 21.7894187181478927 24.1473024617774712
 24.1473024617774712 22.6900501666935490 26.5051862054070497
 24.1473024617774712 25.6045547568613934 26.5051862054070497
 24.1473024617774712 22.6900501666935490 21.7894187181478927
 24.1473024617774712 25.6045547568613934 21.7894187181478927
 28.8630699490366283 24.1473024617774712 21.2327978716096268
 28.8630699490366283 24.1473024617774712 24.1473024617774712
 28.8630699490366283 24.1473024617774712 27.0618070519453155
 19.4315349745183141 24.1473024617774712 21.2327978716096268
 19.4315349745183141 24.1473024617774712 24.1473024617774712
 19.4315349745183141 24.1473024617774712 27.0618070519453155
 21.2327978716096268 28.8630699490366283 24.1473024617774712
 24.1473024617774712 28.8630699490366283 24.1473024617774712
 27.0618070519453155 28.8630699490366283 24.1473024617774712
 21.2327978716096268 19.4315349745183141 24.1473024617774712
 24.1473024617774712 19.4315349745183141 24.1473024617774712
 27.0618070519453155 19.4315349745183141 24.1473024617774712
 24.1473024617774712 21.2327978716096268 28.8630699490366283
 24.1473024617774712 24.1473024617774712 28.8630699490366283
 24.1473024617774712 27.0618070519453155 28.8630699490366283
 24.1473024617774712 21.2327978716096268 19.4315349745183141
 24.1473024617774712 24.1473024617774712 19.4315349745183141
 24.1473024617774712 27.0618070519453155 19.4315349745183141
 26.5051862054070497 22.6900501666935490 27.9624385004909719
 26.5051862054070497 25.6045547568613934 27.9624385004909719
 26.5051862054070497 22.6900501666935490 20.3321664230639705
 26.5051862054070497 25.6045547568613934 20.3321664230639705
 21.7894187181478927 22.6900501666935490 27.9624385004909719
 21.7894187181478927 25.6045547568613934 27.9624385004909719
 21.7894187181478927 22.6900501666935490 20.3321664230639705
 21.7894187181478927 25.6045547568613934 20.3321664230639705
 27.9624385004909719 26.5051862054070497 22.6900501666935490
 27.9624385004909719 26.5051862054070497 25.6045547568613934
 20.3321664230639705 26.5051862054070497 22.6900501666935490
 20.3321664230639705 26.5051862054070497 25.6045547568613934
 27.9624385004909719 21.7894187181478927 22.6900501666935490
 27.9624385004909719 21.7894187181478927 25.6045547568613934
 20.3321664230639705 21.7894187181478927 22.6900501666935490
 20.3321664230639705 21.7894187181478927 25.6045547568613934
 22.6900501666935490 27.9624385004909719 26.5051862054070497
 25.6045547568613934 27.9624385004909719 26.5051862054070497
 22.6900501666935490 20.3321664230639705 26.5051862054070497
 25.6045547568613934 20.3321664230639705 26.5051862054070497
 22.6900501666935490 27.9624385004909719 21.7894187181478927
 25.6045547568613934 27.9624385004909719 21.7894187181478927
 22.6900501666935490 20.3321664230639705 21.7894187181478927
 25.6045547568613934 20.3321664230639705 21.7894187181478927
 31.2209536926662068 24.1473024617774712 19.7755455765257011
 31.2209536926662068 24.1473024617774712 22.6900501666935490
 31.2209536926662068 24.1473024617774712 25.6045547568613934
 31.2209536926662068 24.1473024617774712 28.5190593470292413
 17.0736512308887356 24.1473024617774712 19.7755455765257011
 17.0736512308887356 24.1473024617774712 22.6900501666935490
 17.0736512308887356 24.1473024617774712 25.6045547568613934
 17.0736512308887356 24.1473024617774712 28.5190593470292413
 19.7755455765257011 31.2209536926662068 24.1473024617774712
 22.6900501666935490 31.2209536926662068 24.1473024617774712
 25.6045547568613934 31.2209536926662068 24.1473024617774712
 28.5190593470292413 31.2209536926662068 24.1473024617774712
 19.7755455765257011 17.0736512308887356 24.1473024617774712
 22.6900501666935490 17.0736512308887356 24.1473024617774712
 25.6045547568613934 17.0736512308887356 24.1473024617774712
 28.5190593470292413 17.0736512308887356 24.1473024617774712
 24.1473024617774712 19.7755455765257011 31.2209536926662068
 24.1473024617774712 22.6900501666935490 31.2209536926662068
 24.1473024617774712 25.6045547568613934 31.2209536926662068
 24.1473024617774712 28.5190593470292413 31.2209536926662068
 24.1473024617774712 19.7755455765257011 17.0736512308887356
 24.1473024617774712 22.6900501666935490 17.0736512308887356
 24.1473024617774712 25.6045547568613934 17.0736512308887356
 24.1473024617774712 28.5190593470292413 17.0736512308887356
 28.8630699490366283 22.6900501666935490 29.4196907955748941
 26.5051862054070497 21.2327978716096268 30.3203222441205540
 28.8630699490366283 25.6045547568613934 29.4196907955748941
 26.5051862054070497 24.1473024617774712 30.3203222441205540
 26.5051862054070497 27.0618070519453155 30.3203222441205540
 28.8630699490366283 22.6900501666935490 18.8749141279800483
 26.5051862054070497 21.2327978716096268 17.9742826794343884
 28.8630699490366283 25.6045547568613934 18.8749141279800483
 26.5051862054070497 24.1473024617774712 17.9742826794343884
 26.5051862054070497 27.0618070519453155 17.9742826794343884
 19.4315349745183141 22.6900501666935490 29.4196907955748941
 21.7894187181478927 21.2327978716096268 30.3203222441205540
 19.4315349745183141 25.6045547568613934 29.4196907955748941
 21.7894187181478927 24.1473024617774712 30.3203222441205540
 21.7894187181478927 27.0618070519453155 30.3203222441205540
 19.4315349745183141 22.6900501666935490 18.8749141279800483
 21.7894187181478927 21.2327978716096268 17.9742826794343884
 19.4315349745183141 25.6045547568613934 18.8749141279800483
 21.7894187181478927 24.1473024617774712 17.9742826794343884
 21.7894187181478927 27.0618070519453155 17.9742826794343884
 29.4196907955748941 28.8630699490366283 22.6900501666935490
 30.3203222441205540 26.5051862054070497 21.2327978716096268
 29.4196907955748941 28.8630699490366283 25.6045547568613934
 30.3203222441205540 26.5051862054070497 24.1473024617774712
 30.3203222441205540 26.5051862054070497 27.0618070519453155
 18.8749141279800483 28.8630699490366283 22.6900501666935490
 17.9742826794343884 26.5051862054070497 21.2327978716096268
 18.8749141279800483 28.8630699490366283 25.6045547568613934
 17.9742826794343884 26.5051862054070497 24.1473024617774712
 17.9742826794343884 26.5051862054070497 27.0618070519453155
 29.4196907955748941 19.4315349745183141 22.6900501666935490
 30.3203222441205540 21.7894187181478927 21.2327978716096268
 29.4196907955748941 19.4315349745183141 25.6045547568613934
 30.3203222441205540 21.7894187181478927 24.1473024617774712
 30.3203222441205540 21.7894187181478927 27.0618070519453155
 18.8749141279800483 19.4315349745183141 22.6900501666935490
 17.9742826794343884 21.7894187181478927 21.2327978716096268
 18.8749141279800483 19.4315349745183141 25.6045547568613934
 17.9742826794343884 21.7894187181478927 24.1473024617774712
 17.9742826794343884 21.7894187181478927 27.0618070519453155
 22.6900501666935490 29.4196907955748941 28.8630699490366283
 21.2327978716096268 30.3203222441205540 26.5051862054070497
 25.6045547568613934 29.4196907955748941 28.8630699490366283
 24.1473024617774712 30.3203222441205540 26.5051862054070497
 27.0618070519453155 30.3203222441205540 26.5051862054070497
 22.6900501666935490 18.8749141279800483 28.8630699490366283
 21.2327978716096268 17.9742826794343884 26.5051862054070497
 25.6045547568613934 18.8749141279800483 28.8630699490366283
 24.1473024617774712 17.9742826794343884 26.5051862054070497
 27.0618070519453155 17.9742826794343884 26.5051862054070497
 22.6900501666935490 29.4196907955748941 19.4315349745183141
 21.2327978716096268 30.3203222441205540 21.7894187181478927
 25.6045547568613934 29.4196907955748941 19.4315349745183141
 24.1473024617774712 30.3203222441205540 21.7894187181478927
 27.0618070519453155 30.3203222441205540 21.7894187181478927
 22.6900501666935490 18.8749141279800483 19.4315349745183141
 21.2327978716096268 17.9742826794343884 21.7894187181478927
 25.6045547568613934 18.8749141279800483 19.4315349745183141
 24.1473024617774712 17.9742826794343884 21.7894187181478927
 27.0618070519453155 17.9742826794343884 21.7894187181478927
 27.9624385004909719 20.3321664230639705 27.9624385004909719
 27.9624385004909719 27.9624385004909719 27.9624385004909719
 27.9624385004909719 20.3321664230639705 20.3321664230639705
 27.9624385004909719 27.9624385004909719 20.3321664230639705
 20.3321664230639705 20.3321664230639705 27.9624385004909719
 20.3321664230639705 27.9624385004909719 27.9624385004909719
 20.3321664230639705 20.3321664230639705 20.3321664230639705
 20.3321664230639705 27.9624385004909719 20.3321664230639705
 33.5788374362957853 24.1473024617774712 18.3182932814417789
 33.5788374362957853 24.1473024617774712 21.2327978716096268
 33.5788374362957853 24.1473024617774712 24.1473024617774712
 33.5788374362957853 24.1473024617774712 27.0618070519453155
 33.5788374362957853 24.1473024617774712 29.9763116421131635
 14.7157674872591553 24.1473024617774712 18.3182932814417789
 14.7157674872591553 24.1473024617774712 21.2327978716096268
 14.7157674872591553 24.1473024617774712 24.1473024617774712
 14.7157674872591553 24.1473024617774712 27.0618070519453155
 14.7157674872591553 24.1473024617774712 29.9763116421131635
 18.3182932814417789 33.5788374362957853 24.1473024617774712
 21.2327978716096268 33.5788374362957853 24.1473024617774712
 24.1473024617774712 33.5788374362957853 24.1473024617774712
 27.0618070519453155 33.5788374362957853 24.1473024617774712
 29.9763116421131635 33.5788374362957853 24.1473024617774712
 18.3182932814417789 14.7157674872591553 24.1473024617774712
 21.2327978716096268 14.7157674872591553 24.1473024617774712
 24.1473024617774712 14.7157674872591553 24.1473024617774712
 27.0618070519453155 14.7157674872591553 24.1473024617774712
 29.9763116421131635 14.7157674872591553 24.1473024617774712
 24.1473024617774712 18.3182932814417789 33.5788374362957853
 24.1473024617774712 21.2327978716096268 33.5788374362957853
 24.1473024617774712 24.1473024617774712 33.5788374362957853
 24.1473024617774712 27.0618070519453155 33.5788374362957853
 24.1473024617774712 29.9763116421131635 33.5788374362957853
 24.1473024617774712 18.3182932814417789 14.7157674872591553
 24.1473024617774712 21.2327978716096268 14.7157674872591553
 24.1473024617774712 24.1473024617774712 14.7157674872591553
 24.1473024617774712 27.0618070519453155 14.7157674872591553
 24.1473024617774712 29.9763116421131635 14.7157674872591553
 31.2209536926662068 22.6900501666935490 30.8769430906588198
 28.8630699490366283 21.2327978716096268 31.7775745392044762
 26.5051862054070497 19.7755455765257011 32.6782059877501325
 31.2209536926662068 25.6045547568613934 30.8769430906588198
 28.8630699490366283 24.1473024617774712 31.7775745392044762
 26.5051862054070497 22.6900501666935490 32.6782059877501325
 28.8630699490366283 27.0618070519453155 31.7775745392044762
 26.5051862054070497 25.6045547568613934 32.6782059877501325
 26.5051862054070497 28.5190593470292413 32.6782059877501325
 31.2209536926662068 22.6900501666935490 17.4176618328961226
 28.8630699490366283 21.2327978716096268 16.5170303843504662
 26.5051862054070497 19.7755455765257011 15.6163989358048116
 31.2209536926662068 25.6045547568613934 17.4176618328961226
 28.8630699490366283 24.1473024617774712 16.5170303843504662
 26.5051862054070497 22.6900501666935490 15.6163989358048116
 28.8630699490366283 27.0618070519453155 16.5170303843504662
 26.5051862054070497 25.6045547568613934 15.6163989358048116
 26.5051862054070497 28.5190593470292413 15.6163989358048116
 17.0736512308887356 22.6900501666935490 30.8769430906588198
 19.4315349745183141 21.2327978716096268 31.7775745392044762
 21.7894187181478927 19.7755455765257011 32.6782059877501325
 17.0736512308887356 25.6045547568613934 30.8769430906588198
 19.4315349745183141 24.1473024617774712 31.7775745392044762
 21.7894187181478927 22.6900501666935490 32.6782059877501325
 19.4315349745183141 27.0618070519453155 31.7775745392044762
 21.7894187181478927 25.6045547568613934 32.6782059877501325
 21.7894187181478927 28.5190593470292413 32.6782059877501325
 17.0736512308887356 22.6900501666935490 17.4176618328961226
 19.4315349745183141 21.2327978716096268 16.5170303843504662
 21.7894187181478927 19.7755455765257011 15.6163989358048116
 17.0736512308887356 25.6045547568613934 17.4176618328961226
 19.4315349745183141 24.1473024617774712 16.5170303843504662
 21.7894187181478927 22.6900501666935490 15.6163989358048116
 19.4315349745183141 27.0618070519453155 16.5170303843504662
 21.7894187181478927 25.6045547568613934 15.6163989358048116
 21.7894187181478927 28.5190593470292413 15.6163989358048116
 30.8769430906588198 31.2209536926662068 22.6900501666935490
 31.7775745392044762 28.8630699490366283 21.2327978716096268
 32.6782059877501325 26.5051862054070497 19.7755455765257011
 30.8769430906588198 31.2209536926662068 25.6045547568613934
 31.7775745392044762 28.8630699490366283 24.1473024617774712
 32.6782059877501325 26.5051862054070497 22.6900501666935490
 31.7775745392044762 28.8630699490366283 27.0618070519453155
 32.6782059877501325 26.5051862054070497 25.6045547568613934
 32.6782059877501325 26.5051862054070497 28.5190593470292413
 17.4176618328961226 31.2209536926662068 22.6900501666935490
 16.5170303843504662 28.8630699490366283 21.2327978716096268
 15.6163989358048116 26.5051862054070497 19.7755455765257011
 17.4176618328961226 31.2209536926662068 25.6045547568613934
 16.5170303843504662 28.8630699490366283 24.1473024617774712
 15.6163989358048116 26.5051862054070497 22.6900501666935490
 16.5170303843504662 28.8630699490366283 27.0618070519453155
 15.6163989358048116 26.5051862054070497 25.6045547568613934
 15.6163989358048116 26.5051862054070497 28.5190593470292413
 30.8769430906588198 17.0736512308887356 22.6900501666935490
 31.7775745392044762 19.4315349745183141 21.2327978716096268
 32.6782059877501325 21.7894187181478927 19.7755455765257011
 30.8769430906588198 17.0736512308887356 25.6045547568613934
 31.7775745392044762 19.4315349745183141 24.1473024617774712
 32.6782059877501325 21.7894187181478927 22.6900501666935490
 31.7775745392044762 19.4315349745183141 27.0618070519453155
 32.6782059877501325 21.7894187181478927 25.6045547568613934
 32.6782059877501325 21.7894187181478927 28.5190593470292413
 17.4176618328961226 17.0736512308887356 22.6900501666935490
 16.5170303843504662 19.4315349745183141 21.2327978716096268
 15.6163989358048116 21.7894187181478927 19.7755455765257011
 17.4176618328961226 17.0736512308887356 25.6045547568613934
 16.5170303843504662 19.4315349745183141 24.1473024617774712
 15.6163989358048116 21.7894187181478927 22.6900501666935490
 16.5170303843504662 19.4315349745183141 27.0618070519453155
 15.6163989358048116 21.7894187181478927 25.6045547568613934
 15.6163989358048116 21.7894187181478927 28.5190593470292413
 22.6900501666935490 30.8769430906588198 31.2209536926662068
 21.2327978716096268 31.7775745392044762 28.8630699490366283
 19.7755455765257011 32.6782059877501325 26.5051862054070497
 25.6045547568613934 30.8769430906588198 31.2209536926662068
 24.1473024617774712 31.7775745392044762 28.8630699490366283
 22.6900501666935490 32.6782059877501325 26.5051862054070497
 27.0618070519453155 31.7775745392044762 28.8630699490366283
 25.6045547568613934 32.6782059877501325 26.5051862054070497
 28.5190593470292413 32.6782059877501325 26.5051862054070497
 22.6900501666935490 17.4176618328961226 31.2209536926662068
 21.2327978716096268 16.5170303843504662 28.8630699490366283
 19.7755455765257011 15.6163989358048116 26.5051862054070497
 25.6045547568613934 17.4176618328961226 31.2209536926662068
 24.1473024617774712 16.5170303843504662 28.8630699490366283
 22.6900501666935490 15.6163989358048116 26.5051862054070497
 27.0618070519453155 16.5170303843504662 28.8630699490366283
 25.6045547568613934 15.6163989358048116 26.5051862054070497
 28.5190593470292413 15.6163989358048116 26.5051862054070497
 22.6900501666935490 30.8769430906588198 17.0736512308887356
 21.2327978716096268 31.7775745392044762 19.4315349745183141
 19.7755455765257011 32.6782059877501325 21.7894187181478927
 25.6045547568613934 30.8769430906588198 17.0736512308887356
 24.1473024617774712 31.7775745392044762 19.4315349745183141
 22.6900501666935490 32.6782059877501325 21.7894187181478927
 27.0618070519453155 31.7775745392044762 19.4315349745183141
 25.6045547568613934 32.6782059877501325 21.7894187181478927
 28.5190593470292413 32.6782059877501325 21.7894187181478927
 22.6900501666935490 17.4176618328961226 17.0736512308887356
 21.2327978716096268 16.5170303843504662 19.4315349745183141
 19.7755455765257011 15.6163989358048116 21.7894187181478927
 25.6045547568613934 17.4176618328961226 17.0736512308887356
 24.1473024617774712 16.5170303843504662 19.4315349745183141
 22.6900501666935490 15.6163989358048116 21.7894187181478927
 27.0618070519453155 16.5170303843504662 19.4315349745183141
 25.6045547568613934 15.6163989358048116 21.7894187181478927
 28.5190593470292413 15.6163989358048116 21.7894187181478927
 30.3203222441205540 20.3321664230639705 29.4196907955748941
 30.3203222441205540 27.9624385004909719 29.4196907955748941
 29.4196907955748941 17.9742826794343884 27.9624385004909719
 29.4196907955748941 30.3203222441205540 27.9624385004909719
 27.9624385004909719 18.8749141279800483 30.3203222441205540
 27.9624385004909719 29.4196907955748941 30.3203222441205540
 30.3203222441205540 20.3321664230639705 18.8749141279800483
 30.3203222441205540 27.9624385004909719 18.8749141279800483
 29.4196907955748941 17.9742826794343884 20.3321664230639705
 29.4196907955748941 30.3203222441205540 20.3321664230639705
 27.9624385004909719 18.8749141279800483 17.9742826794343884
 27.9624385004909719 29.4196907955748941 17.9742826794343884
 17.9742826794343884 20.3321664230639705 29.4196907955748941
 17.9742826794343884 27.9624385004909719 29.4196907955748941
 18.8749141279800483 17.9742826794343884 27.9624385004909719
 18.8749141279800483 30.3203222441205540 27.9624385004909719
 20.3321664230639705 18.8749141279800483 30.3203222441205540
 20.3321664230639705 29.4196907955748941 30.3203222441205540
 17.9742826794343884 20.3321664230639705 18.8749141279800483
 17.9742826794343884 27.9624385004909719 18.8749141279800483
 18.8749141279800483 17.9742826794343884 20.3321664230639705
 18.8749141279800483 30.3203222441205540 20.3321664230639705
 20.3321664230639705 18.8749141279800483 17.9742826794343884
 20.3321664230639705 29.4196907955748941 17.9742826794343884
 35.9367211799253639 24.1473024617774712 16.8610409863578568
 35.9367211799253639 24.1473024617774712 19.7755455765257011
 35.9367211799253639 24.1473024617774712 22.6900501666935490
 35.9367211799253639 24.1473024617774712 25.6045547568613934
 35.9367211799253639 24.1473024617774712 28.5190593470292413
 35.9367211799253639 24.1473024617774712 31.4335639371970856
 12.3578837436295768 24.1473024617774712 16.8610409863578568
 12.3578837436295768 24.1473024617774712 19.7755455765257011
 12.3578837436295768 24.1473024617774712 22.6900501666935490
 12.3578837436295768 24.1473024617774712 25.6045547568613934
 12.3578837436295768 24.1473024617774712 28.5190593470292413
 12.3578837436295768 24.1473024617774712 31.4335639371970856
 16.8610409863578568 35.9367211799253639 24.1473024617774712
 19.7755455765257011 35.9367211799253639 24.1473024617774712
 22.6900501666935490 35.9367211799253639 24.1473024617774712
 25.6045547568613934 35.9367211799253639 24.1473024617774712
 28.5190593470292413 35.9367211799253639 24.1473024617774712
 31.4335639371970856 35.9367211799253639 24.1473024617774712
 16.8610409863578568 12.3578837436295768 24.1473024617774712
 19.7755455765257011 12.3578837436295768 24.1473024617774712
 22.6900501666935490 12.3578837436295768 24.1473024617774712
 25.6045547568613934 12.3578837436295768 24.1473024617774712
 28.5190593470292413 12.3578837436295768 24.1473024617774712
 31.4335639371970856 12.3578837436295768 24.1473024617774712
 24.1473024617774712 16.8610409863578568 35.9367211799253639
 24.1473024617774712 19.7755455765257011 35.9367211799253639
 24.1473024617774712 22.6900501666935490 35.9367211799253639
 24.1473024617774712 25.6045547568613934 35.9367211799253639
 24.1473024617774712 28.5190593470292413 35.9367211799253639
 24.1473024617774712 31.4335639371970856 35.9367211799253639
 24.1473024617774712 16.8610409863578568 12.3578837436295768
 24.1473024617774712 19.7755455765257011 12.3578837436295768
 24.1473024617774712 22.6900501666935490 12.3578837436295768
 24.1473024617774712 25.6045547568613934 12.3578837436295768
 24.1473024617774712 28.5190593470292413 12.3578837436295768
 24.1473024617774712 31.4335639371970856 12.3578837436295768
 33.5788374362957853 22.6900501666935490 32.3341953857427455
 31.2209536926662068 21.2327978716096268 33.2348268342883983
 28.8630699490366283 19.7755455765257011 34.1354582828340511
 26.5051862054070497 18.3182932814417789 35.0360897313797111
 33.5788374362957853 25.6045547568613934 32.3341953857427455
 31.2209536926662068 24.1473024617774712 33.2348268342883983
 28.8630699490366283 22.6900501666935490 34.1354582828340511
 26.5051862054070497 21.2327978716096268 35.0360897313797111
 31.2209536926662068 27.0618070519453155 33.2348268342883983
 28.8630699490366283 25.6045547568613934 34.1354582828340511
 26.5051862054070497 24.1473024617774712 35.0360897313797111
 28.8630699490366283 28.5190593470292413 34.1354582828340511
 26.5051862054070497 27.0618070519453155 35.0360897313797111
 26.5051862054070497 29.9763116421131635 35.0360897313797111
 33.5788374362957853 22.6900501666935490 15.9604095378122004
 31.2209536926662068 21.2327978716096268 15.0597780892665440
 28.8630699490366283 19.7755455765257011 14.1591466407208877
 26.5051862054070497 18.3182932814417789 13.2585151921752331
 33.5788374362957853 25.6045547568613934 15.9604095378122004
 31.2209536926662068 24.1473024617774712 15.0597780892665440
 28.8630699490366283 22.6900501666935490 14.1591466407208877
 26.5051862054070497 21.2327978716096268 13.2585151921752331
 31.2209536926662068 27.0618070519453155 15.0597780892665440
 28.8630699490366283 25.6045547568613934 14.1591466407208877
 26.5051862054070497 24.1473024617774712 13.2585151921752331
 28.8630699490366283 28.5190593470292413 14.1591466407208877
 26.5051862054070497 27.0618070519453155 13.2585151921752331
 26.5051862054070497 29.9763116421131635 13.2585151921752331
 14.7157674872591553 22.6900501666935490 32.3341953857427455
 17.0736512308887356 21.2327978716096268 33.2348268342883983
 19.4315349745183141 19.7755455765257011 34.1354582828340511
 21.7894187181478927 18.3182932814417789 35.0360897313797111
 14.7157674872591553 25.6045547568613934 32.3341953857427455
 17.0736512308887356 24.1473024617774712 33.2348268342883983
 19.4315349745183141 22.6900501666935490 34.1354582828340511
 21.7894187181478927 21.2327978716096268 35.0360897313797111
 17.0736512308887356 27.0618070519453155 33.2348268342883983
 19.4315349745183141 25.6045547568613934 34.1354582828340511
 21.7894187181478927 24.1473024617774712 35.0360897313797111
 19.4315349745183141 28.5190593470292413 34.1354582828340511
 21.7894187181478927 27.0618070519453155 35.0360897313797111
 21.7894187181478927 29.9763116421131635 35.0360897313797111
 14.7157674872591553 22.6900501666935490 15.9604095378122004
 17.0736512308887356 21.2327978716096268 15.0597780892665440
 19.4315349745183141 19.7755455765257011 14.1591466407208877
 21.7894187181478927 18.3182932814417789 13.2585151921752331
 14.7157674872591553 25.6045547568613934 15.9604095378122004
 17.0736512308887356 24.1473024617774712 15.0597780892665440
 19.4315349745183141 22.6900501666935490 14.1591466407208877
 21.7894187181478927 21.2327978716096268 13.2585151921752331
 17.0736512308887356 27.0618070519453155 15.0597780892665440
 19.4315349745183141 25.6045547568613934 14.1591466407208877
 21.7894187181478927 24.1473024617774712 13.2585151921752331
 19.4315349745183141 28.5190593470292413 14.1591466407208877
 21.7894187181478927 27.0618070519453155 13.2585151921752331
 21.7894187181478927 29.9763116421131635 13.2585151921752331
 32.3341953857427455 33.5788374362957853 22.6900501666935490
 33.2348268342883983 31.2209536926662068 21.2327978716096268
 34.1354582828340511 28.8630699490366283 19.7755455765257011
 35.0360897313797111 26.5051862054070497 18.3182932814417789
 32.3341953857427455 33.5788374362957853 25.6045547568613934
 33.2348268342883983 31.2209536926662068 24.1473024617774712
 34.1354582828340511 28.8630699490366283 22.6900501666935490
 35.0360897313797111 26.5051862054070497 21.2327978716096268
 33.2348268342883983 31.2209536926662068 27.0618070519453155
 34.1354582828340511 28.8630699490366283 25.6045547568613934
 35.0360897313797111 26.5051862054070497 24.1473024617774712
 34.1354582828340511 28.8630699490366283 28.5190593470292413
 35.0360897313797111 26.5051862054070497 27.0618070519453155
 35.0360897313797111 26.5051862054070497 29.9763116421131635
 15.9604095378122004 33.5788374362957853 22.6900501666935490
 15.0597780892665440 31.2209536926662068 21.2327978716096268
 14.1591466407208877 28.8630699490366283 19.7755455765257011
 13.2585151921752331 26.5051862054070497 18.3182932814417789
 15.9604095378122004 33.5788374362957853 25.6045547568613934
 15.0597780892665440 31.2209536926662068 24.1473024617774712
 14.1591466407208877 28.8630699490366283 22.6900501666935490
 13.2585151921752331 26.5051862054070497 21.2327978716096268
 15.0597780892665440 31.2209536926662068 27.0618070519453155
 14.1591466407208877 28.8630699490366283 25.6045547568613934
 13.2585151921752331 26.5051862054070497 24.1473024617774712
 14.1591466407208877 28.8630699490366283 28.5190593470292413
 13.2585151921752331 26.5051862054070497 27.0618070519453155
 13.2585151921752331 26.5051862054070497 29.9763116421131635
 32.3341953857427455 14.7157674872591553 22.6900501666935490
 33.2348268342883983 17.0736512308887356 21.2327978716096268
 34.1354582828340511 19.4315349745183141 19.7755455765257011
 35.0360897313797111 21.7894187181478927 18.3182932814417789
 32.3341953857427455 14.7157674872591553 25.6045547568613934
 33.2348268342883983 17.0736512308887356 24.1473024617774712
 34.1354582828340511 19.4315349745183141 22.6900501666935490
 35.0360897313797111 21.7894187181478927 21.2327978716096268
 33.2348268342883983 17.0736512308887356 27.0618070519453155
 34.1354582828340511 19.4315349745183141 25.6045547568613934
 35.0360897313797111 21.7894187181478927 24.1473024617774712
 34.1354582828340511 19.4315349745183141 28.5190593470292413
 35.0360897313797111 21.7894187181478927 27.0618070519453155
 35.0360897313797111 21.7894187181478927 29.9763116421131635
 15.9604095378122004 14.7157674872591553 22.6900501666935490
 15.0597780892665440 17.0736512308887356 21.2327978716096268
 14.1591466407208877 19.4315349745183141 19.7755455765257011
 13.2585151921752331 21.7894187181478927 18.3182932814417789
 15.9604095378122004 14.7157674872591553 25.6045547568613934
 15.0597780892665440 17.0736512308887356 24.1473024617774712
 14.1591466407208877 19.4315349745183141 22.6900501666935490
 13.2585151921752331 21.7894187181478927 21.2327978716096268
 15.0597780892665440 17.0736512308887356 27.0618070519453155
 14.1591466407208877 19.4315349745183141 25.6045547568613934
 13.2585151921752331 21.7894187181478927 24.1473024617774712
 14.1591466407208877 19.4315349745183141 28.5190593470292413
 13.2585151921752331 21.7894187181478927 27.0618070519453155
 13.2585151921752331 21.7894187181478927 29.9763116421131635
 22.6900501666935490 32.3341953857427455 33.5788374362957853
 21.2327978716096268 33.2348268342883983 31.2209536926662068
 19.7755455765257011 34.1354582828340511 28.8630699490366283
 18.3182932814417789 35.0360897313797111 26.5051862054070497
 25.6045547568613934 32.3341953857427455 33.5788374362957853
 24.1473024617774712 33.2348268342883983 31.2209536926662068
 22.6900501666935490 34.1354582828340511 28.8630699490366283
 21.2327978716096268 35.0360897313797111 26.5051862054070497
 27.0618070519453155 33.2348268342883983 31.2209536926662068
 25.6045547568613934 34.1354582828340511 28.8630699490366283
 24.1473024617774712 35.0360897313797111 26.5051862054070497
 28.5190593470292413 34.1354582828340511 28.8630699490366283
 27.0618070519453155 35.0360897313797111 26.5051862054070497
 29.9763116421131635 35.0360897313797111 26.5051862054070497
 22.6900501666935490 15.9604095378122004 33.5788374362957853
 21.2327978716096268 15.0597780892665440 31.2209536926662068
 19.7755455765257011 14.1591466407208877 28.8630699490366283
 18.3182932814417789 13.2585151921752331 26.5051862054070497
 25.6045547568613934 15.9604095378122004 33.5788374362957853
 24.1473024617774712 15.0597780892665440 31.2209536926662068
 22.6900501666935490 14.1591466407208877 28.8630699490366283
 21.2327978716096268 13.2585151921752331 26.5051862054070497
 27.0618070519453155 15.0597780892665440 31.2209536926662068
 25.6045547568613934 14.1591466407208877 28.8630699490366283
 24.1473024617774712 13.2585151921752331 26.5051862054070497
 28.5190593470292413 14.1591466407208877 28.8630699490366283
 27.0618070519453155 13.2585151921752331 26.5051862054070497
 29.9763116421131635 13.2585151921752331 26.5051862054070497
 22.6900501666935490 32.3341953857427455 14.7157674872591553
 21.2327978716096268 33.2348268342883983 17.0736512308887356