Au 
 1.0000000000000000
    49.4494867571694385    0.0000000000000000    0.0000000000000000
     0.0000000000000000   49.4494867571694385    0.0000000000000000
     0.0000000000000000    0.0000000000000000   49.4494867571694385
 Au 
 923
Cartesian
 24.7247433785847193 24.7247433785847193 24.7247433785847193
 27.1788672750155058 24.7247433785847193 23.2080113979871676
 27.1788672750155058 24.7247433785847193 26.2414753591822709
 22.2706194821539327 24.7247433785847193 23.2080113979871676
 22.2706194821539327 24.7247433785847193 26.2414753591822709
 23.2080113979871676 27.1788672750155058 24.7247433785847193
 26.2414753591822709 27.1788672750155058 24.7247433785847193
 23.2080113979871676 22.2706194821539327 24.7247433785847193
 26.2414753591822709 22.2706194821539327 24.7247433785847193
 24.7247433785847193 23.2080113979871676 27.1788672750155058
 24.7247433785847193 26.2414753591822709 27.1788672750155058
 24.7247433785847193 23.2080113979871676 22.2706194821539327
 24.7247433785847193 26.2414753591822709 22.2706194821539327
 29.6329911714462924 24.7247433785847193 21.6912794173896160
 29.6329911714462924 24.7247433785847193 24.7247433785847193
 29.6329911714462924 24.7247433785847193 27.7582073397798226
 19.8164955857231462 24.7247433785847193 21.6912794173896160
 19.8164955857231462 24.7247433785847193 24.7247433785847193
 19.8164955857231462 24.7247433785847193 27.7582073397798226
 21.6912794173896160 29.6329911714462924 24.7247433785847193
 24.7247433785847193 29.6329911714462924 24.7247433785847193
 27.7582073397798226 29.6329911714462924 24.7247433785847193
 21.6912794173896160 19.8164955857231462 24.7247433785847193
 24.7247433785847193 19.8164955857231462 24.7247433785847193
 27.7582073397798226 19.8164955857231462 24.7247433785847193
 24.7247433785847193 21.6912794173896160 29.6329911714462924
 24.7247433785847193 24.7247433785847193 29.6329911714462924
 24.7247433785847193 27.7582073397798226 29.6329911714462924
 24.7247433785847193 21.6912794173896160 19.8164955857231462
 24.7247433785847193 24.7247433785847193 19.8164955857231462
 24.7247433785847193 27.7582073397798226 19.8164955857231462
 27.1788672750155058 23.2080113979871676 28.6955992556130575
 27.1788672750155058 26.2414753591822709 28.6955992556130575
 27.1788672750155058 23.2080113979871676 20.7538875015563811
 27.1788672750155058 26.2414753591822709 20.7538875015563811
 22.2706194821539327 23.2080113979871676 28.6955992556130575
 22.2706194821539327 26.2414753591822709 28.6955992556130575
 22.2706194821539327 23.2080113979871676 20.7538875015563811
 22.2706194821539327 26.2414753591822709 20.7538875015563811
 28.6955992556130575 27.1788672750155058 23.2080113979871676
 28.6955992556130575 27.1788672750155058 26.2414753591822709
 20.7538875015563811 27.1788672750155058 23.2080113979871676
 20.7538875015563811 27.1788672750155058 26.2414753591822709
 28.6955992556130575 22.2706194821539327 23.2080113979871676
 28.6955992556130575 22.2706194821539327 26.2414753591822709
 20.7538875015563811 22.2706194821539327 23.2080113979871676
 20.7538875015563811 22.2706194821539327 26.2414753591822709
 23.2080113979871676 28.6955992556130575 27.1788672750155058
 26.2414753591822709 28.6955992556130575 27.1788672750155058
 23.2080113979871676 20.7538875015563811 27.1788672750155058
 26.2414753591822709 20.7538875015563811 27.1788672750155058
 23.2080113979871676 28.6955992556130575 22.2706194821539327
 26.2414753591822709 28.6955992556130575 22.2706194821539327
 23.2080113979871676 20.7538875015563811 22.2706194821539327
 26.2414753591822709 20.7538875015563811 22.2706194821539327
 32.0871150678770789 24.7247433785847193 20.1745474367920608
 32.0871150678770789 24.7247433785847193 23.2080113979871676
 32.0871150678770789 24.7247433785847193 26.2414753591822709
 32.0871150678770789 24.7247433785847193 29.2749393203773778
 17.3623716892923596 24.7247433785847193 20.1745474367920608
 17.3623716892923596 24.7247433785847193 23.2080113979871676
 17.3623716892923596 24.7247433785847193 26.2414753591822709
 17.3623716892923596 24.7247433785847193 29.2749393203773778
 20.1745474367920608 32.0871150678770789 24.7247433785847193
 23.2080113979871676 32.0871150678770789 24.7247433785847193
 26.2414753591822709 32.0871150678770789 24.7247433785847193
 29.2749393203773778 32.0871150678770789 24.7247433785847193
 20.1745474367920608 17.3623716892923596 24.7247433785847193
 23.2080113979871676 17.3623716892923596 24.7247433785847193
 26.2414753591822709 17.3623716892923596 24.7247433785847193
 29.2749393203773778 17.3623716892923596 24.7247433785847193
 24.7247433785847193 20.1745474367920608 32.0871150678770789
 24.7247433785847193 23.2080113979871676 32.0871150678770789
 24.7247433785847193 26.2414753591822709 32.0871150678770789
 24.7247433785847193 29.2749393203773778 32.0871150678770789
 24.7247433785847193 20.1745474367920608 17.3623716892923596
 24.7247433785847193 23.2080113979871676 17.3623716892923596
 24.7247433785847193 26.2414753591822709 17.3623716892923596
 24.7247433785847193 29.2749393203773778 17.3623716892923596
 29.6329911714462924 23.2080113979871676 30.2123312362106091
 27.1788672750155058 21.6912794173896160 31.1497231520438440
 29.6329911714462924 26.2414753591822709 30.2123312362106091
 27.1788672750155058 24.7247433785847193 31.1497231520438440
 27.1788672750155058 27.7582073397798226 31.1497231520438440
 29.6329911714462924 23.2080113979871676 19.2371555209588294
 27.1788672750155058 21.6912794173896160 18.2997636051255945
 29.6329911714462924 26.2414753591822709 19.2371555209588294
 27.1788672750155058 24.7247433785847193 18.2997636051255945
 27.1788672750155058 27.7582073397798226 18.2997636051255945
 19.8164955857231462 23.2080113979871676 30.2123312362106091
 22.2706194821539327 21.6912794173896160 31.1497231520438440
 19.8164955857231462 26.2414753591822709 30.2123312362106091
 22.2706194821539327 24.7247433785847193 31.1497231520438440
 22.2706194821539327 27.7582073397798226 31.1497231520438440
 19.8164955857231462 23.2080113979871676 19.2371555209588294
 22.2706194821539327 21.6912794173896160 18.2997636051255945
 19.8164955857231462 26.2414753591822709 19.2371555209588294
 22.2706194821539327 24.7247433785847193 18.2997636051255945
 22.2706194821539327 27.7582073397798226 18.2997636051255945
 30.2123312362106091 29.6329911714462924 23.2080113979871676
 31.1497231520438440 27.1788672750155058 21.6912794173896160
 30.2123312362106091 29.6329911714462924 26.2414753591822709
 31.1497231520438440 27.1788672750155058 24.7247433785847193
 31.1497231520438440 27.1788672750155058 27.7582073397798226
 19.2371555209588294 29.6329911714462924 23.2080113979871676
 18.2997636051255945 27.1788672750155058 21.6912794173896160
 19.2371555209588294 29.6329911714462924 26.2414753591822709
 18.2997636051255945 27.1788672750155058 24.7247433785847193
 18.2997636051255945 27.1788672750155058 27.7582073397798226
 30.2123312362106091 19.8164955857231462 23.2080113979871676
 31.1497231520438440 22.2706194821539327 21.6912794173896160
 30.2123312362106091 19.8164955857231462 26.2414753591822709
 31.1497231520438440 22.2706194821539327 24.7247433785847193
 31.1497231520438440 22.2706194821539327 27.7582073397798226
 19.2371555209588294 19.8164955857231462 23.2080113979871676
 18.2997636051255945 22.2706194821539327 21.6912794173896160
 19.2371555209588294 19.8164955857231462 26.2414753591822709
 18.2997636051255945 22.2706194821539327 24.7247433785847193
 18.2997636051255945 22.2706194821539327 27.7582073397798226
 23.2080113979871676 30.2123312362106091 29.6329911714462924
 21.6912794173896160 31.1497231520438440 27.1788672750155058
 26.2414753591822709 30.2123312362106091 29.6329911714462924
 24.7247433785847193 31.1497231520438440 27.1788672750155058
 27.7582073397798226 31.1497231520438440 27.1788672750155058
 23.2080113979871676 19.2371555209588294 29.6329911714462924
 21.6912794173896160 18.2997636051255945 27.1788672750155058
 26.2414753591822709 19.2371555209588294 29.6329911714462924
 24.7247433785847193 18.2997636051255945 27.1788672750155058
 27.7582073397798226 18.2997636051255945 27.1788672750155058
 23.2080113979871676 30.2123312362106091 19.8164955857231462
 21.6912794173896160 31.1497231520438440 22.2706194821539327
 26.2414753591822709 30.2123312362106091 19.8164955857231462
 24.7247433785847193 31.1497231520438440 22.2706194821539327
 27.7582073397798226 31.1497231520438440 22.2706194821539327
 23.2080113979871676 19.2371555209588294 19.8164955857231462
 21.6912794173896160 18.2997636051255945 22.2706194821539327
 26.2414753591822709 19.2371555209588294 19.8164955857231462
 24.7247433785847193 18.2997636051255945 22.2706194821539327
 27.7582073397798226 18.2997636051255945 22.2706194821539327
 28.6955992556130575 20.7538875015563811 28.6955992556130575
 28.6955992556130575 28.6955992556130575 28.6955992556130575
 28.6955992556130575 20.7538875015563811 20.7538875015563811
 28.6955992556130575 28.6955992556130575 20.7538875015563811
 20.7538875015563811 20.7538875015563811 28.6955992556130575
 20.7538875015563811 28.6955992556130575 28.6955992556130575
 20.7538875015563811 20.7538875015563811 20.7538875015563811
 20.7538875015563811 28.6955992556130575 20.7538875015563811
 34.5412389643078654 24.7247433785847193 18.6578154561945091
 34.5412389643078654 24.7247433785847193 21.6912794173896160
 34.5412389643078654 24.7247433785847193 24.7247433785847193
 34.5412389643078654 24.7247433785847193 27.7582073397798226
 34.5412389643078654 24.7247433785847193 30.7916713009749294
 14.9082477928615749 24.7247433785847193 18.6578154561945091
 14.9082477928615749 24.7247433785847193 21.6912794173896160
 14.9082477928615749 24.7247433785847193 24.7247433785847193
 14.9082477928615749 24.7247433785847193 27.7582073397798226
 14.9082477928615749 24.7247433785847193 30.7916713009749294
 18.6578154561945091 34.5412389643078654 24.7247433785847193
 21.6912794173896160 34.5412389643078654 24.7247433785847193
 24.7247433785847193 34.5412389643078654 24.7247433785847193
 27.7582073397798226 34.5412389643078654 24.7247433785847193
 30.7916713009749294 34.5412389643078654 24.7247433785847193
 18.6578154561945091 14.9082477928615749 24.7247433785847193
 21.6912794173896160 14.9082477928615749 24.7247433785847193
 24.7247433785847193 14.9082477928615749 24.7247433785847193
 27.7582073397798226 14.9082477928615749 24.7247433785847193
 30.7916713009749294 14.9082477928615749 24.7247433785847193
 24.7247433785847193 18.6578154561945091 34.5412389643078654
 24.7247433785847193 21.6912794173896160 34.5412389643078654
 24.7247433785847193 24.7247433785847193 34.5412389643078654
 24.7247433785847193 27.7582073397798226 34.5412389643078654
 24.7247433785847193 30.7916713009749294 34.5412389643078654
 24.7247433785847193 18.6578154561945091 14.9082477928615749
 24.7247433785847193 21.6912794173896160 14.9082477928615749
 24.7247433785847193 24.7247433785847193 14.9082477928615749
 24.7247433785847193 27.7582073397798226 14.9082477928615749
 24.7247433785847193 30.7916713009749294 14.9082477928615749
 32.0871150678770789 23.2080113979871676 31.7290632168081643
 29.6329911714462924 21.6912794173896160 32.6664551326413957
 27.1788672750155058 20.1745474367920608 33.6038470484746341
 32.0871150678770789 26.2414753591822709 31.7290632168081643
 29.6329911714462924 24.7247433785847193 32.6664551326413957
 27.1788672750155058 23.2080113979871676 33.6038470484746341
 29.6329911714462924 27.7582073397798226 32.6664551326413957
 27.1788672750155058 26.2414753591822709 33.6038470484746341
 27.1788672750155058 29.2749393203773778 33.6038470484746341
 32.0871150678770789 23.2080113979871676 17.7204235403612742
 29.6329911714462924 21.6912794173896160 16.7830316245280429
 27.1788672750155058 20.1745474367920608 15.8456397086948080
 32.0871150678770789 26.2414753591822709 17.7204235403612742
 29.6329911714462924 24.7247433785847193 16.7830316245280429
 27.1788672750155058 23.2080113979871676 15.8456397086948080
 29.6329911714462924 27.7582073397798226 16.7830316245280429
 27.1788672750155058 26.2414753591822709 15.8456397086948080
 27.1788672750155058 29.2749393203773778 15.8456397086948080
 17.3623716892923596 23.2080113979871676 31.7290632168081643
 19.8164955857231462 21.6912794173896160 32.6664551326413957
 22.2706194821539327 20.1745474367920608 33.6038470484746341
 17.3623716892923596 26.2414753591822709 31.7290632168081643
 19.8164955857231462 24.7247433785847193 32.6664551326413957
 22.2706194821539327 23.2080113979871676 33.6038470484746341
 19.8164955857231462 27.7582073397798226 32.6664551326413957
 22.2706194821539327 26.2414753591822709 33.6038470484746341
 22.2706194821539327 29.2749393203773778 33.6038470484746341
 17.3623716892923596 23.2080113979871676 17.7204235403612742
 19.8164955857231462 21.6912794173896160 16.7830316245280429
 22.2706194821539327 20.1745474367920608 15.8456397086948080
 17.3623716892923596 26.2414753591822709 17.7204235403612742
 19.8164955857231462 24.7247433785847193 16.7830316245280429
 22.2706194821539327 23.2080113979871676 15.8456397086948080
 19.8164955857231462 27.7582073397798226 16.7830316245280429
 22.2706194821539327 26.2414753591822709 15.8456397086948080
 22.2706194821539327 29.2749393203773778 15.8456397086948080
 31.7290632168081643 32.0871150678770789 23.2080113979871676
 32.6664551326413957 29.6329911714462924 21.6912794173896160
 33.6038470484746341 27.1788672750155058 20.1745474367920608
 31.7290632168081643 32.0871150678770789 26.2414753591822709
 32.6664551326413957 29.6329911714462924 24.7247433785847193
 33.6038470484746341 27.1788672750155058 23.2080113979871676
 32.6664551326413957 29.6329911714462924 27.7582073397798226
 33.6038470484746341 27.1788672750155058 26.2414753591822709
 33.6038470484746341 27.1788672750155058 29.2749393203773778
 17.7204235403612742 32.0871150678770789 23.2080113979871676
 16.7830316245280429 29.6329911714462924 21.6912794173896160
 15.8456397086948080 27.1788672750155058 20.1745474367920608
 17.7204235403612742 32.0871150678770789 26.2414753591822709
 16.7830316245280429 29.6329911714462924 24.7247433785847193
 15.8456397086948080 27.1788672750155058 23.2080113979871676
 16.7830316245280429 29.6329911714462924 27.7582073397798226
 15.8456397086948080 27.1788672750155058 26.2414753591822709
 15.8456397086948080 27.1788672750155058 29.2749393203773778
 31.7290632168081643 17.3623716892923596 23.2080113979871676
 32.6664551326413957 19.8164955857231462 21.6912794173896160
 33.6038470484746341 22.2706194821539327 20.1745474367920608
 31.7290632168081643 17.3623716892923596 26.2414753591822709
 32.6664551326413957 19.8164955857231462 24.7247433785847193
 33.6038470484746341 22.2706194821539327 23.2080113979871676
 32.6664551326413957 19.8164955857231462 27.7582073397798226
 33.6038470484746341 22.2706194821539327 26.2414753591822709
 33.6038470484746341 22.2706194821539327 29.2749393203773778
 17.7204235403612742 17.3623716892923596 23.2080113979871676
 16.7830316245280429 19.8164955857231462 21.6912794173896160
 15.8456397086948080 22.2706194821539327 20.1745474367920608
 17.7204235403612742 17.3623716892923596 26.2414753591822709
 16.7830316245280429 19.8164955857231462 24.7247433785847193
 15.8456397086948080 22.2706194821539327 23.2080113979871676
 16.7830316245280429 19.8164955857231462 27.7582073397798226
 15.8456397086948080 22.2706194821539327 26.2414753591822709
 15.8456397086948080 22.2706194821539327 29.2749393203773778
 23.2080113979871676 31.7290632168081643 32.0871150678770789
 21.6912794173896160 32.6664551326413957 29.6329911714462924
 20.1745474367920608 33.6038470484746341 27.1788672750155058
 26.2414753591822709 31.7290632168081643 32.0871150678770789
 24.7247433785847193 32.6664551326413957 29.6329911714462924
 23.2080113979871676 33.6038470484746341 27.1788672750155058
 27.7582073397798226 32.6664551326413957 29.6329911714462924
 26.2414753591822709 33.6038470484746341 27.1788672750155058
 29.2749393203773778 33.6038470484746341 27.1788672750155058
 23.2080113979871676 17.7204235403612742 32.0871150678770789
 21.6912794173896160 16.7830316245280429 29.6329911714462924
 20.1745474367920608 15.8456397086948080 27.1788672750155058
 26.2414753591822709 17.7204235403612742 32.0871150678770789
 24.7247433785847193 16.7830316245280429 29.6329911714462924
 23.2080113979871676 15.8456397086948080 27.1788672750155058
 27.7582073397798226 16.7830316245280429 29.6329911714462924
 26.2414753591822709 15.8456397086948080 27.1788672750155058
 29.2749393203773778 15.8456397086948080 27.1788672750155058
 23.2080113979871676 31.7290632168081643 17.3623716892923596
 21.6912794173896160 32.6664551326413957 19.8164955857231462
 20.1745474367920608 33.6038470484746341 22.2706194821539327
 26.2414753591822709 31.7290632168081643 17.3623716892923596
 24.7247433785847193 32.6664551326413957 19.8164955857231462
 23.2080113979871676 33.6038470484746341 22.2706194821539327
 27.7582073397798226 32.6664551326413957 19.8164955857231462
 26.2414753591822709 33.6038470484746341 22.2706194821539327
 29.2749393203773778 33.6038470484746341 22.2706194821539327
 23.2080113979871676 17.7204235403612742 17.3623716892923596
 21.6912794173896160 16.7830316245280429 19.8164955857231462
 20.1745474367920608 15.8456397086948080 22.2706194821539327
 26.2414753591822709 17.7204235403612742 17.3623716892923596
 24.7247433785847193 16.7830316245280429 19.8164955857231462
 23.2080113979871676 15.8456397086948080 22.2706194821539327
 27.7582073397798226 16.7830316245280429 19.8164955857231462
 26.2414753591822709 15.8456397086948080 22.2706194821539327
 29.2749393203773778 15.8456397086948080 22.2706194821539327
 31.1497231520438440 20.7538875015563811 30.2123312362106091
 31.1497231520438440 28.6955992556130575 30.2123312362106091
 30.2123312362106091 18.2997636051255945 28.6955992556130575
 30.2123312362106091 31.1497231520438440 28.6955992556130575
 28.6955992556130575 19.2371555209588294 31.1497231520438440
 28.6955992556130575 30.2123312362106091 31.1497231520438440
 31.1497231520438440 20.7538875015563811 19.2371555209588294
 31.1497231520438440 28.6955992556130575 19.2371555209588294
 30.2123312362106091 18.2997636051255945 20.7538875015563811
 30.2123312362106091 31.1497231520438440 20.7538875015563811
 28.6955992556130575 19.2371555209588294 18.2997636051255945
 28.6955992556130575 30.2123312362106091 18.2997636051255945
 18.2997636051255945 20.7538875015563811 30.2123312362106091
 18.2997636051255945 28.6955992556130575 30.2123312362106091
 19.2371555209588294 18.2997636051255945 28.6955992556130575
 19.2371555209588294 31.1497231520438440 28.6955992556130575
 20.7538875015563811 19.2371555209588294 31.1497231520438440
 20.7538875015563811 30.2123312362106091 31.1497231520438440
 18.2997636051255945 20.7538875015563811 19.2371555209588294
 18.2997636051255945 28.6955992556130575 19.2371555209588294
 19.2371555209588294 18.2997636051255945 20.7538875015563811
 19.2371555209588294 31.1497231520438440 20.7538875015563811
 20.7538875015563811 19.2371555209588294 18.2997636051255945
 20.7538875015563811 30.2123312362106091 18.2997636051255945
 36.9953628607386520 24.7247433785847193 17.1410834755969574
 36.9953628607386520 24.7247433785847193 20.1745474367920608
 36.9953628607386520 24.7247433785847193 23.2080113979871676
 36.9953628607386520 24.7247433785847193 26.2414753591822709
 36.9953628607386520 24.7247433785847193 29.2749393203773778
 36.9953628607386520 24.7247433785847193 32.3084032815724811
 12.4541238964307883 24.7247433785847193 17.1410834755969574
 12.4541238964307883 24.7247433785847193 20.1745474367920608
 12.4541238964307883 24.7247433785847193 23.2080113979871676
 12.4541238964307883 24.7247433785847193 26.2414753591822709
 12.4541238964307883 24.7247433785847193 29.2749393203773778
 12.4541238964307883 24.7247433785847193 32.3084032815724811
 17.1410834755969574 36.9953628607386520 24.7247433785847193
 20.1745474367920608 36.9953628607386520 24.7247433785847193
 23.2080113979871676 36.9953628607386520 24.7247433785847193
 26.2414753591822709 36.9953628607386520 24.7247433785847193
 29.2749393203773778 36.9953628607386520 24.7247433785847193
 32.3084032815724811 36.9953628607386520 24.7247433785847193
 17.1410834755969574 12.4541238964307883 24.7247433785847193
 20.1745474367920608 12.4541238964307883 24.7247433785847193
 23.2080113979871676 12.4541238964307883 24.7247433785847193
 26.2414753591822709 12.4541238964307883 24.7247433785847193
 29.2749393203773778 12.4541238964307883 24.7247433785847193
 32.3084032815724811 12.4541238964307883 24.7247433785847193
 24.7247433785847193 17.1410834755969574 36.9953628607386520
 24.7247433785847193 20.1745474367920608 36.9953628607386520
 24.7247433785847193 23.2080113979871676 36.9953628607386520
 24.7247433785847193 26.2414753591822709 36.9953628607386520
 24.7247433785847193 29.2749393203773778 36.9953628607386520
 24.7247433785847193 32.3084032815724811 36.9953628607386520
 24.7247433785847193 17.1410834755969574 12.4541238964307883
 24.7247433785847193 20.1745474367920608 12.4541238964307883
 24.7247433785847193 23.2080113979871676 12.4541238964307883
 24.7247433785847193 26.2414753591822709 12.4541238964307883
 24.7247433785847193 29.2749393203773778 12.4541238964307883
 24.7247433785847193 32.3084032815724811 12.4541238964307883
 34.5412389643078654 23.2080113979871676 33.2457951974057124
 32.0871150678770789 21.6912794173896160 34.1831871132389509
 29.6329911714462924 20.1745474367920608 35.1205790290721822
 27.1788672750155058 18.6578154561945091 36.0579709449054207
 34.5412389643078654 26.2414753591822709 33.2457951974057124
 32.0871150678770789 24.7247433785847193 34.1831871132389509
 29.6329911714462924 23.2080113979871676 35.1205790290721822
 27.1788672750155058 21.6912794173896160 36.0579709449054207
 32.0871150678770789 27.7582073397798226 34.1831871132389509
 29.6329911714462924 26.2414753591822709 35.1205790290721822
 27.1788672750155058 24.7247433785847193 36.0579709449054207
 29.6329911714462924 29.2749393203773778 35.1205790290721822
 27.1788672750155058 27.7582073397798226 36.0579709449054207
 27.1788672750155058 30.7916713009749294 36.0579709449054207
 34.5412389643078654 23.2080113979871676 16.2036915597637226
 32.0871150678770789 21.6912794173896160 15.2662996439304894
 29.6329911714462924 20.1745474367920608 14.3289077280972563
 27.1788672750155058 18.6578154561945091 13.3915158122640214
 34.5412389643078654 26.2414753591822709 16.2036915597637226
 32.0871150678770789 24.7247433785847193 15.2662996439304894
 29.6329911714462924 23.2080113979871676 14.3289077280972563
 27.1788672750155058 21.6912794173896160 13.3915158122640214
 32.0871150678770789 27.7582073397798226 15.2662996439304894
 29.6329911714462924 26.2414753591822709 14.3289077280972563
 27.1788672750155058 24.7247433785847193 13.3915158122640214
 29.6329911714462924 29.2749393203773778 14.3289077280972563
 27.1788672750155058 27.7582073397798226 13.3915158122640214
 27.1788672750155058 30.7916713009749294 13.3915158122640214
 14.9082477928615749 23.2080113979871676 33.2457951974057124
 17.3623716892923596 21.6912794173896160 34.1831871132389509
 19.8164955857231462 20.1745474367920608 35.1205790290721822
 22.2706194821539327 18.6578154561945091 36.0579709449054207
 14.9082477928615749 26.2414753591822709 33.2457951974057124
 17.3623716892923596 24.7247433785847193 34.1831871132389509
 19.8164955857231462 23.2080113979871676 35.1205790290721822
 22.2706194821539327 21.6912794173896160 36.0579709449054207
 17.3623716892923596 27.7582073397798226 34.1831871132389509
 19.8164955857231462 26.2414753591822709 35.1205790290721822
 22.2706194821539327 24.7247433785847193 36.0579709449054207
 19.8164955857231462 29.2749393203773778 35.1205790290721822
 22.2706194821539327 27.7582073397798226 36.0579709449054207
 22.2706194821539327 30.7916713009749294 36.0579709449054207
 14.9082477928615749 23.2080113979871676 16.2036915597637226
 17.3623716892923596 21.6912794173896160 15.2662996439304894
 19.8164955857231462 20.1745474367920608 14.3289077280972563
 22.2706194821539327 18.6578154561945091 13.3915158122640214
 14.9082477928615749 26.2414753591822709 16.2036915597637226
 17.3623716892923596 24.7247433785847193 15.2662996439304894
 19.8164955857231462 23.2080113979871676 14.3289077280972563
 22.2706194821539327 21.6912794173896160 13.3915158122640214
 17.3623716892923596 27.7582073397798226 15.2662996439304894
 19.8164955857231462 26.2414753591822709 14.3289077280972563
 22.2706194821539327 24.7247433785847193 13.3915158122640214
 19.8164955857231462 29.2749393203773778 14.3289077280972563
 22.2706194821539327 27.7582073397798226 13.3915158122640214
 22.2706194821539327 30.7916713009749294 13.3915158122640214
 33.2457951974057124 34.5412389643078654 23.2080113979871676
 34.1831871132389509 32.0871150678770789 21.6912794173896160
 35.1205790290721822 29.6329911714462924 20.1745474367920608
 36.0579709449054207 27.1788672750155058 18.6578154561945091
 33.2457951974057124 34.5412389643078654 26.2414753591822709
 34.1831871132389509 32.0871150678770789 24.7247433785847193
 35.1205790290721822 29.6329911714462924 23.2080113979871676
 36.0579709449054207 27.1788672750155058 21.6912794173896160
 34.1831871132389509 32.0871150678770789 27.7582073397798226
 35.1205790290721822 29.6329911714462924 26.2414753591822709
 36.0579709449054207 27.1788672750155058 24.7247433785847193
 35.1205790290721822 29.6329911714462924 29.2749393203773778
 36.0579709449054207 27.1788672750155058 27.7582073397798226
 36.0579709449054207 27.1788672750155058 30.7916713009749294
 16.2036915597637226 34.5412389643078654 23.2080113979871676
 15.2662996439304894 32.0871150678770789 21.6912794173896160
 14.3289077280972563 29.6329911714462924 20.1745474367920608
 13.3915158122640214 27.1788672750155058 18.6578154561945091
 16.2036915597637226 34.5412389643078654 26.2414753591822709
 15.2662996439304894 32.0871150678770789 24.7247433785847193
 14.3289077280972563 29.6329911714462924 23.2080113979871676
 13.3915158122640214 27.1788672750155058 21.6912794173896160
 15.2662996439304894 32.0871150678770789 27.7582073397798226
 14.3289077280972563 29.6329911714462924 26.2414753591822709
 13.3915158122640214 27.1788672750155058 24.7247433785847193
 14.3289077280972563 29.6329911714462924 29.2749393203773778
 13.3915158122640214 27.1788672750155058 27.7582073397798226
 13.3915158122640214 27.1788672750155058 30.7916713009749294
 33.2457951974057124 14.9082477928615749 23.2080113979871676
 34.1831871132389509 17.3623716892923596 21.6912794173896160
 35.1205790290721822 19.8164955857231462 20.1745474367920608
 36.0579709449054207 22.2706194821539327 18.6578154561945091
 33.2457951974057124 14.9082477928615749 26.2414753591822709
 34.1831871132389509 17.3623716892923596 24.7247433785847193
 35.1205790290721822 19.8164955857231462 23.2080113979871676
 36.0579709449054207 22.2706194821539327 21.6912794173896160
 34.1831871132389509 17.3623716892923596 27.7582073397798226
 35.1205790290721822 19.8164955857231462 26.2414753591822709
 36.0579709449054207 22.2706194821539327 24.7247433785847193
 35.1205790290721822 19.8164955857231462 29.2749393203773778
 36.0579709449054207 22.2706194821539327 27.7582073397798226
 36.0579709449054207 22.2706194821539327 30.7916713009749294
 16.2036915597637226 14.9082477928615749 23.2080113979871676
 15.2662996439304894 17.3623716892923596 21.6912794173896160
 14.3289077280972563 19.8164955857231462 20.1745474367920608
 13.3915158122640214 22.2706194821539327 18.6578154561945091
 16.2036915597637226 14.9082477928615749 26.2414753591822709
 15.2662996439304894 17.3623716892923596 24.7247433785847193
 14.3289077280972563 19.8164955857231462 23.2080113979871676
 13.3915158122640214 22.2706194821539327 21.6912794173896160
 15.2662996439304894 17.3623716892923596 27.7582073397798226
 14.3289077280972563 19.8164955857231462 26.2414753591822709
 13.3915158122640214 22.2706194821539327 24.7247433785847193
 14.3289077280972563 19.8164955857231462 29.2749393203773778
 13.3915158122640214 22.2706194821539327 27.7582073397798226
 13.3915158122640214 22.2706194821539327 30.7916713009749294
 23.2080113979871676 33.2457951974057124 34.5412389643078654
 21.6912794173896160 34.1831871132389509 32.0871150678770789
 20.1745474367920608 35.1205790290721822 29.6329911714462924
 18.6578154561945091 36.0579709449054207 27.1788672750155058
 26.2414753591822709 33.2457951974057124 34.5412389643078654
 24.7247433785847193 34.1831871132389509 32.0871150678770789
 23.2080113979871676 35.1205790290721822 29.6329911714462924
 21.6912794173896160 36.0579709449054207 27.1788672750155058
 27.7582073397798226 34.1831871132389509 32.0871150678770789
 26.2414753591822709 35.1205790290721822 29.6329911714462924
 24.7247433785847193 36.0579709449054207 27.1788672750155058
 29.2749393203773778 35.1205790290721822 29.6329911714462924
 27.7582073397798226 36.0579709449054207 27.1788672750155058
 30.7916713009749294 36.0579709449054207 27.1788672750155058
 23.2080113979871676 16.2036915597637226 34.5412389643078654
 21.6912794173896160 15.2662996439304894 32.0871150678770789
 20.1745474367920608 14.3289077280972563 29.6329911714462924
 18.6578154561945091 13.3915158122640214 27.1788672750155058
 26.2414753591822709 16.2036915597637226 34.5412389643078654
 24.7247433785847193 15.2662996439304894 32.0871150678770789
 23.2080113979871676 14.3289077280972563 29.6329911714462924
 21.6912794173896160 13.3915158122640214 27.1788672750155058
 27.7582073397798226 15.2662996439304894 32.0871150678770789
 26.2414753591822709 14.3289077280972563 29.6329911714462924
 24.7247433785847193 13.3915158122640214 27.1788672750155058
 29.2749393203773778 14.3289077280972563 29.6329911714462924
 27.7582073397798226 13.3915158122640214 27.1788672750155058
 30.7916713009749294 13.3915158122640214 27.1788672750155058
 23.2080113979871676 33.2457951974057124 14.9082477928615749
 21.6912794173896160 34.1831871132389509 17.3623716892923596