Au 
 1.0000000000000000
    48.5600000000000023    0.0000000000000000    0.0000000000000000
     0.0000000000000000   48.5600000000000023    0.0000000000000000
     0.0000000000000000    0.0000000000000000   48.5600000000000023
 Au 
 483
Cartesian
 10.0000000000000000 22.2400000000000020 24.2800000000000011
 10.0000000000000000 24.2800000000000011 22.2400000000000020
 10.0000000000000000 24.2800000000000011 26.3200000000000003
 10.0000000000000000 26.3200000000000003 24.2800000000000011
 14.0800000000000018 18.1600000000000001 24.2800000000000011
 12.0400000000000009 22.2400000000000020 22.2400000000000020
 14.0800000000000018 20.2000000000000028 22.2400000000000020
 14.0800000000000018 22.2400000000000020 20.2000000000000028
 12.0400000000000009 20.2000000000000028 24.2800000000000011
 12.0400000000000009 22.2400000000000020 26.3200000000000003
 14.0800000000000018 20.2000000000000028 26.3200000000000003
 14.0800000000000018 22.2400000000000020 24.2800000000000011
 14.0800000000000018 22.2400000000000020 28.3599999999999994
 14.0800000000000018 24.2800000000000011 18.1600000000000001
 12.0400000000000009 24.2800000000000011 20.2000000000000028
 12.0400000000000009 26.3200000000000003 22.2400000000000020
 14.0800000000000018 24.2800000000000011 22.2400000000000020
 14.0800000000000018 26.3200000000000003 20.2000000000000028
 12.0400000000000009 24.2800000000000011 24.2800000000000011
 12.0400000000000009 26.3200000000000003 26.3200000000000003
 14.0800000000000018 24.2800000000000011 26.3200000000000003
 14.0800000000000018 26.3200000000000003 24.2800000000000011
 12.0400000000000009 24.2800000000000011 28.3599999999999994
 14.0800000000000018 24.2800000000000011 30.3999999999999986
 14.0800000000000018 26.3200000000000003 28.3599999999999994
 14.0800000000000018 28.3599999999999994 22.2400000000000020
 12.0400000000000009 28.3599999999999994 24.2800000000000011
 14.0800000000000018 28.3599999999999994 26.3200000000000003
 14.0800000000000018 30.3999999999999986 24.2800000000000011
 18.1600000000000001 14.0800000000000018 24.2800000000000011
 16.1200000000000010 18.1600000000000001 22.2400000000000020
 18.1600000000000001 16.1200000000000010 22.2400000000000020
 18.1600000000000001 18.1600000000000001 20.2000000000000028
 16.1200000000000010 16.1200000000000010 24.2800000000000011
 16.1200000000000010 18.1600000000000001 26.3200000000000003
 18.1600000000000001 16.1200000000000010 26.3200000000000003
 18.1600000000000001 18.1600000000000001 24.2800000000000011
 18.1600000000000001 18.1600000000000001 28.3599999999999994
 16.1200000000000010 22.2400000000000020 18.1600000000000001
 18.1600000000000001 20.2000000000000028 18.1600000000000001
 18.1600000000000001 22.2400000000000020 16.1200000000000010
 16.1200000000000010 20.2000000000000028 20.2000000000000028
 16.1200000000000010 22.2400000000000020 22.2400000000000020
 18.1600000000000001 20.2000000000000028 22.2400000000000020
 18.1600000000000001 22.2400000000000020 20.2000000000000028
 16.1200000000000010 20.2000000000000028 24.2800000000000011
 16.1200000000000010 22.2400000000000020 26.3200000000000003
 18.1600000000000001 20.2000000000000028 26.3200000000000003
 18.1600000000000001 22.2400000000000020 24.2800000000000011
 16.1200000000000010 20.2000000000000028 28.3599999999999994
 16.1200000000000010 22.2400000000000020 30.3999999999999986
 18.1600000000000001 20.2000000000000028 30.3999999999999986
 18.1600000000000001 22.2400000000000020 28.3599999999999994
 18.1600000000000001 22.2400000000000020 32.4399999999999977
 18.1600000000000001 24.2800000000000011 14.0800000000000018
 16.1200000000000010 24.2800000000000011 16.1200000000000010
 16.1200000000000010 26.3200000000000003 18.1600000000000001
 18.1600000000000001 24.2800000000000011 18.1600000000000001
 18.1600000000000001 26.3200000000000003 16.1200000000000010
 16.1200000000000010 24.2800000000000011 20.2000000000000028
 16.1200000000000010 26.3200000000000003 22.2400000000000020
 18.1600000000000001 24.2800000000000011 22.2400000000000020
 18.1600000000000001 26.3200000000000003 20.2000000000000028
 16.1200000000000010 24.2800000000000011 24.2800000000000011
 16.1200000000000010 26.3200000000000003 26.3200000000000003
 18.1600000000000001 24.2800000000000011 26.3200000000000003
 18.1600000000000001 26.3200000000000003 24.2800000000000011
 16.1200000000000010 24.2800000000000011 28.3599999999999994
 16.1200000000000010 26.3200000000000003 30.3999999999999986
 18.1600000000000001 24.2800000000000011 30.3999999999999986
 18.1600000000000001 26.3200000000000003 28.3599999999999994
 16.1200000000000010 24.2800000000000011 32.4399999999999977
 18.1600000000000001 24.2800000000000011 34.4800000000000040
 18.1600000000000001 26.3200000000000003 32.4399999999999977
 18.1600000000000001 28.3599999999999994 18.1600000000000001
 16.1200000000000010 28.3599999999999994 20.2000000000000028
 16.1200000000000010 30.3999999999999986 22.2400000000000020
 18.1600000000000001 28.3599999999999994 22.2400000000000020
 18.1600000000000001 30.3999999999999986 20.2000000000000028
 16.1200000000000010 28.3599999999999994 24.2800000000000011
 16.1200000000000010 30.3999999999999986 26.3200000000000003
 18.1600000000000001 28.3599999999999994 26.3200000000000003
 18.1600000000000001 30.3999999999999986 24.2800000000000011
 16.1200000000000010 28.3599999999999994 28.3599999999999994
 18.1600000000000001 28.3599999999999994 30.3999999999999986
 18.1600000000000001 30.3999999999999986 28.3599999999999994
 18.1600000000000001 32.4399999999999977 22.2400000000000020
 16.1200000000000010 32.4399999999999977 24.2800000000000011
 18.1600000000000001 32.4399999999999977 26.3200000000000003
 18.1600000000000001 34.4800000000000040 24.2800000000000011
 22.2400000000000020 10.0000000000000000 24.2800000000000011
 20.2000000000000028 14.0800000000000018 22.2400000000000020
 22.2400000000000020 12.0400000000000009 22.2400000000000020
 22.2400000000000020 14.0800000000000018 20.2000000000000028
 20.2000000000000028 12.0400000000000009 24.2800000000000011
 20.2000000000000028 14.0800000000000018 26.3200000000000003
 22.2400000000000020 12.0400000000000009 26.3200000000000003
 22.2400000000000020 14.0800000000000018 24.2800000000000011
 22.2400000000000020 14.0800000000000018 28.3599999999999994
 20.2000000000000028 18.1600000000000001 18.1600000000000001
 22.2400000000000020 16.1200000000000010 18.1600000000000001
 22.2400000000000020 18.1600000000000001 16.1200000000000010
 20.2000000000000028 16.1200000000000010 20.2000000000000028
 20.2000000000000028 18.1600000000000001 22.2400000000000020
 22.2400000000000020 16.1200000000000010 22.2400000000000020
 22.2400000000000020 18.1600000000000001 20.2000000000000028
 20.2000000000000028 16.1200000000000010 24.2800000000000011
 20.2000000000000028 18.1600000000000001 26.3200000000000003
 22.2400000000000020 16.1200000000000010 26.3200000000000003
 22.2400000000000020 18.1600000000000001 24.2800000000000011
 20.2000000000000028 16.1200000000000010 28.3599999999999994
 20.2000000000000028 18.1600000000000001 30.3999999999999986
 22.2400000000000020 16.1200000000000010 30.3999999999999986
 22.2400000000000020 18.1600000000000001 28.3599999999999994
 22.2400000000000020 18.1600000000000001 32.4399999999999977
 20.2000000000000028 22.2400000000000020 14.0800000000000018
 22.2400000000000020 20.2000000000000028 14.0800000000000018
 22.2400000000000020 22.2400000000000020 12.0400000000000009
 20.2000000000000028 20.2000000000000028 16.1200000000000010
 20.2000000000000028 22.2400000000000020 18.1600000000000001
 22.2400000000000020 20.2000000000000028 18.1600000000000001
 22.2400000000000020 22.2400000000000020 16.1200000000000010
 20.2000000000000028 20.2000000000000028 20.2000000000000028
 20.2000000000000028 22.2400000000000020 22.2400000000000020
 22.2400000000000020 20.2000000000000028 22.2400000000000020
 22.2400000000000020 22.2400000000000020 20.2000000000000028
 20.2000000000000028 20.2000000000000028 24.2800000000000011
 20.2000000000000028 22.2400000000000020 26.3200000000000003
 22.2400000000000020 20.2000000000000028 26.3200000000000003
 22.2400000000000020 22.2400000000000020 24.2800000000000011
 20.2000000000000028 20.2000000000000028 28.3599999999999994
 20.2000000000000028 22.2400000000000020 30.3999999999999986
 22.2400000000000020 20.2000000000000028 30.3999999999999986
 22.2400000000000020 22.2400000000000020 28.3599999999999994
 20.2000000000000028 20.2000000000000028 32.4399999999999977
 20.2000000000000028 22.2400000000000020 34.4800000000000040
 22.2400000000000020 20.2000000000000028 34.4800000000000040
 22.2400000000000020 22.2400000000000020 32.4399999999999977
 22.2400000000000020 22.2400000000000020 36.5200000000000031
 22.2400000000000020 24.2800000000000011 10.0000000000000000
 20.2000000000000028 24.2800000000000011 12.0400000000000009
 20.2000000000000028 26.3200000000000003 14.0800000000000018
 22.2400000000000020 24.2800000000000011 14.0800000000000018
 22.2400000000000020 26.3200000000000003 12.0400000000000009
 20.2000000000000028 24.2800000000000011 16.1200000000000010
 20.2000000000000028 26.3200000000000003 18.1600000000000001
 22.2400000000000020 24.2800000000000011 18.1600000000000001
 22.2400000000000020 26.3200000000000003 16.1200000000000010
 20.2000000000000028 24.2800000000000011 20.2000000000000028
 20.2000000000000028 26.3200000000000003 22.2400000000000020
 22.2400000000000020 24.2800000000000011 22.2400000000000020
 22.2400000000000020 26.3200000000000003 20.2000000000000028
 20.2000000000000028 24.2800000000000011 24.2800000000000011
 20.2000000000000028 26.3200000000000003 26.3200000000000003
 22.2400000000000020 24.2800000000000011 26.3200000000000003
 22.2400000000000020 26.3200000000000003 24.2800000000000011
 20.2000000000000028 24.2800000000000011 28.3599999999999994
 20.2000000000000028 26.3200000000000003 30.3999999999999986
 22.2400000000000020 24.2800000000000011 30.3999999999999986
 22.2400000000000020 26.3200000000000003 28.3599999999999994
 20.2000000000000028 24.2800000000000011 32.4399999999999977
 20.2000000000000028 26.3200000000000003 34.4800000000000040
 22.2400000000000020 24.2800000000000011 34.4800000000000040
 22.2400000000000020 26.3200000000000003 32.4399999999999977
 20.2000000000000028 24.2800000000000011 36.5200000000000031
 22.2400000000000020 24.2800000000000011 38.5600000000000023
 22.2400000000000020 26.3200000000000003 36.5200000000000031
 22.2400000000000020 28.3599999999999994 14.0800000000000018
 20.2000000000000028 28.3599999999999994 16.1200000000000010
 20.2000000000000028 30.3999999999999986 18.1600000000000001
 22.2400000000000020 28.3599999999999994 18.1600000000000001
 22.2400000000000020 30.3999999999999986 16.1200000000000010
 20.2000000000000028 28.3599999999999994 20.2000000000000028
 20.2000000000000028 30.3999999999999986 22.2400000000000020
 22.2400000000000020 28.3599999999999994 22.2400000000000020
 22.2400000000000020 30.3999999999999986 20.2000000000000028
 20.2000000000000028 28.3599999999999994 24.2800000000000011
 20.2000000000000028 30.3999999999999986 26.3200000000000003
 22.2400000000000020 28.3599999999999994 26.3200000000000003
 22.2400000000000020 30.3999999999999986 24.2800000000000011
 20.2000000000000028 28.3599999999999994 28.3599999999999994
 20.2000000000000028 30.3999999999999986 30.3999999999999986
 22.2400000000000020 28.3599999999999994 30.3999999999999986
 22.2400000000000020 30.3999999999999986 28.3599999999999994
 20.2000000000000028 28.3599999999999994 32.4399999999999977
 22.2400000000000020 28.3599999999999994 34.4800000000000040
 22.2400000000000020 30.3999999999999986 32.4399999999999977
 22.2400000000000020 32.4399999999999977 18.1600000000000001
 20.2000000000000028 32.4399999999999977 20.2000000000000028
 20.2000000000000028 34.4800000000000040 22.2400000000000020
 22.2400000000000020 32.4399999999999977 22.2400000000000020
 22.2400000000000020 34.4800000000000040 20.2000000000000028
 20.2000000000000028 32.4399999999999977 24.2800000000000011
 20.2000000000000028 34.4800000000000040 26.3200000000000003
 22.2400000000000020 32.4399999999999977 26.3200000000000003
 22.2400000000000020 34.4800000000000040 24.2800000000000011
 20.2000000000000028 32.4399999999999977 28.3599999999999994
 22.2400000000000020 32.4399999999999977 30.3999999999999986
 22.2400000000000020 34.4800000000000040 28.3599999999999994
 22.2400000000000020 36.5200000000000031 22.2400000000000020
 20.2000000000000028 36.5200000000000031 24.2800000000000011
 22.2400000000000020 36.5200000000000031 26.3200000000000003
 22.2400000000000020 38.5600000000000023 24.2800000000000011
 24.2800000000000011 10.0000000000000000 22.2400000000000020
 24.2800000000000011 10.0000000000000000 26.3200000000000003
 26.3200000000000003 10.0000000000000000 24.2800000000000011
 24.2800000000000011 14.0800000000000018 18.1600000000000001
 24.2800000000000011 12.0400000000000009 20.2000000000000028
 24.2800000000000011 14.0800000000000018 22.2400000000000020
 26.3200000000000003 12.0400000000000009 22.2400000000000020
 26.3200000000000003 14.0800000000000018 20.2000000000000028
 24.2800000000000011 12.0400000000000009 24.2800000000000011
 24.2800000000000011 14.0800000000000018 26.3200000000000003
 26.3200000000000003 12.0400000000000009 26.3200000000000003
 26.3200000000000003 14.0800000000000018 24.2800000000000011
 24.2800000000000011 12.0400000000000009 28.3599999999999994
 24.2800000000000011 14.0800000000000018 30.3999999999999986
 26.3200000000000003 14.0800000000000018 28.3599999999999994
 24.2800000000000011 18.1600000000000001 14.0800000000000018
 24.2800000000000011 16.1200000000000010 16.1200000000000010
 24.2800000000000011 18.1600000000000001 18.1600000000000001
 26.3200000000000003 16.1200000000000010 18.1600000000000001
 26.3200000000000003 18.1600000000000001 16.1200000000000010
 24.2800000000000011 16.1200000000000010 20.2000000000000028
 24.2800000000000011 18.1600000000000001 22.2400000000000020
 26.3200000000000003 16.1200000000000010 22.2400000000000020
 26.3200000000000003 18.1600000000000001 20.2000000000000028
 24.2800000000000011 16.1200000000000010 24.2800000000000011
 24.2800000000000011 18.1600000000000001 26.3200000000000003
 26.3200000000000003 16.1200000000000010 26.3200000000000003
 26.3200000000000003 18.1600000000000001 24.2800000000000011
 24.2800000000000011 16.1200000000000010 28.3599999999999994
 24.2800000000000011 18.1600000000000001 30.3999999999999986
 26.3200000000000003 16.1200000000000010 30.3999999999999986
 26.3200000000000003 18.1600000000000001 28.3599999999999994
 24.2800000000000011 16.1200000000000010 32.4399999999999977
 24.2800000000000011 18.1600000000000001 34.4800000000000040
 26.3200000000000003 18.1600000000000001 32.4399999999999977
 24.2800000000000011 22.2400000000000020 10.0000000000000000
 24.2800000000000011 20.2000000000000028 12.0400000000000009
 24.2800000000000011 22.2400000000000020 14.0800000000000018
 26.3200000000000003 20.2000000000000028 14.0800000000000018
 26.3200000000000003 22.2400000000000020 12.0400000000000009
 24.2800000000000011 20.2000000000000028 16.1200000000000010
 24.2800000000000011 22.2400000000000020 18.1600000000000001
 26.3200000000000003 20.2000000000000028 18.1600000000000001
 26.3200000000000003 22.2400000000000020 16.1200000000000010
 24.2800000000000011 20.2000000000000028 20.2000000000000028
 24.2800000000000011 22.2400000000000020 22.2400000000000020
 26.3200000000000003 20.2000000000000028 22.2400000000000020
 26.3200000000000003 22.2400000000000020 20.2000000000000028
 24.2800000000000011 20.2000000000000028 24.2800000000000011
 24.2800000000000011 22.2400000000000020 26.3200000000000003
 26.3200000000000003 20.2000000000000028 26.3200000000000003
 26.3200000000000003 22.2400000000000020 24.2800000000000011
 24.2800000000000011 20.2000000000000028 28.3599999999999994
 24.2800000000000011 22.2400000000000020 30.3999999999999986
 26.3200000000000003 20.2000000000000028 30.3999999999999986
 26.3200000000000003 22.2400000000000020 28.3599999999999994
 24.2800000000000011 20.2000000000000028 32.4399999999999977
 24.2800000000000011 22.2400000000000020 34.4800000000000040
 26.3200000000000003 20.2000000000000028 34.4800000000000040
 26.3200000000000003 22.2400000000000020 32.4399999999999977
 24.2800000000000011 20.2000000000000028 36.5200000000000031
 24.2800000000000011 22.2400000000000020 38.5600000000000023
 26.3200000000000003 22.2400000000000020 36.5200000000000031
 24.2800000000000011 26.3200000000000003 10.0000000000000000
 26.3200000000000003 24.2800000000000011 10.0000000000000000
 24.2800000000000011 24.2800000000000011 12.0400000000000009
 24.2800000000000011 26.3200000000000003 14.0800000000000018
 26.3200000000000003 24.2800000000000011 14.0800000000000018
 26.3200000000000003 26.3200000000000003 12.0400000000000009
 24.2800000000000011 24.2800000000000011 16.1200000000000010
 24.2800000000000011 26.3200000000000003 18.1600000000000001
 26.3200000000000003 24.2800000000000011 18.1600000000000001
 26.3200000000000003 26.3200000000000003 16.1200000000000010
 24.2800000000000011 24.2800000000000011 20.2000000000000028
 24.2800000000000011 26.3200000000000003 22.2400000000000020
 26.3200000000000003 24.2800000000000011 22.2400000000000020
 26.3200000000000003 26.3200000000000003 20.2000000000000028
 24.2800000000000011 24.2800000000000011 24.2800000000000011
 24.2800000000000011 26.3200000000000003 26.3200000000000003
 26.3200000000000003 24.2800000000000011 26.3200000000000003
 26.3200000000000003 26.3200000000000003 24.2800000000000011
 24.2800000000000011 24.2800000000000011 28.3599999999999994
 24.2800000000000011 26.3200000000000003 30.3999999999999986
 26.3200000000000003 24.2800000000000011 30.3999999999999986
 26.3200000000000003 26.3200000000000003 28.3599999999999994
 24.2800000000000011 24.2800000000000011 32.4399999999999977
 24.2800000000000011 26.3200000000000003 34.4800000000000040
 26.3200000000000003 24.2800000000000011 34.4800000000000040
 26.3200000000000003 26.3200000000000003 32.4399999999999977
 24.2800000000000011 24.2800000000000011 36.5200000000000031
 24.2800000000000011 26.3200000000000003 38.5600000000000023
 26.3200000000000003 24.2800000000000011 38.5600000000000023
 26.3200000000000003 26.3200000000000003 36.5200000000000031
 24.2800000000000011 28.3599999999999994 12.0400000000000009
 24.2800000000000011 30.3999999999999986 14.0800000000000018
 26.3200000000000003 28.3599999999999994 14.0800000000000018
 24.2800000000000011 28.3599999999999994 16.1200000000000010
 24.2800000000000011 30.3999999999999986 18.1600000000000001
 26.3200000000000003 28.3599999999999994 18.1600000000000001
 26.3200000000000003 30.3999999999999986 16.1200000000000010
 24.2800000000000011 28.3599999999999994 20.2000000000000028
 24.2800000000000011 30.3999999999999986 22.2400000000000020
 26.3200000000000003 28.3599999999999994 22.2400000000000020
 26.3200000000000003 30.3999999999999986 20.2000000000000028
 24.2800000000000011 28.3599999999999994 24.2800000000000011
 24.2800000000000011 30.3999999999999986 26.3200000000000003
 26.3200000000000003 28.3599999999999994 26.3200000000000003
 26.3200000000000003 30.3999999999999986 24.2800000000000011
 24.2800000000000011 28.3599999999999994 28.3599999999999994
 24.2800000000000011 30.3999999999999986 30.3999999999999986
 26.3200000000000003 28.3599999999999994 30.3999999999999986
 26.3200000000000003 30.3999999999999986 28.3599999999999994
 24.2800000000000011 28.3599999999999994 32.4399999999999977
 24.2800000000000011 30.3999999999999986 34.4800000000000040
 26.3200000000000003 28.3599999999999994 34.4800000000000040
 26.3200000000000003 30.3999999999999986 32.4399999999999977
 24.2800000000000011 28.3599999999999994 36.5200000000000031
 24.2800000000000011 32.4399999999999977 16.1200000000000010
 24.2800000000000011 34.4800000000000040 18.1600000000000001
 26.3200000000000003 32.4399999999999977 18.1600000000000001
 24.2800000000000011 32.4399999999999977 20.2000000000000028
 24.2800000000000011 34.4800000000000040 22.2400000000000020
 26.3200000000000003 32.4399999999999977 22.2400000000000020
 26.3200000000000003 34.4800000000000040 20.2000000000000028
 24.2800000000000011 32.4399999999999977 24.2800000000000011
 24.2800000000000011 34.4800000000000040 26.3200000000000003
 26.3200000000000003 32.4399999999999977 26.3200000000000003
 26.3200000000000003 34.4800000000000040 24.2800000000000011
 24.2800000000000011 32.4399999999999977 28.3599999999999994
 24.2800000000000011 34.4800000000000040 30.3999999999999986
 26.3200000000000003 32.4399999999999977 30.3999999999999986
 26.3200000000000003 34.4800000000000040 28.3599999999999994
 24.2800000000000011 32.4399999999999977 32.4399999999999977
 24.2800000000000011 36.5200000000000031 20.2000000000000028
 24.2800000000000011 38.5600000000000023 22.2400000000000020
 26.3200000000000003 36.5200000000000031 22.2400000000000020
 24.2800000000000011 36.5200000000000031 24.2800000000000011
 24.2800000000000011 38.5600000000000023 26.3200000000000003
 26.3200000000000003 36.5200000000000031 26.3200000000000003
 26.3200000000000003 38.5600000000000023 24.2800000000000011
 24.2800000000000011 36.5200000000000031 28.3599999999999994
 28.3599999999999994 14.0800000000000018 22.2400000000000020
 28.3599999999999994 12.0400000000000009 24.2800000000000011
 28.3599999999999994 14.0800000000000018 26.3200000000000003
 30.3999999999999986 14.0800000000000018 24.2800000000000011
 28.3599999999999994 18.1600000000000001 18.1600000000000001
 28.3599999999999994 16.1200000000000010 20.2000000000000028
 28.3599999999999994 18.1600000000000001 22.2400000000000020
 30.3999999999999986 16.1200000000000010 22.2400000000000020
 30.3999999999999986 18.1600000000000001 20.2000000000000028
 28.3599999999999994 16.1200000000000010 24.2800000000000011
 28.3599999999999994 18.1600000000000001 26.3200000000000003
 30.3999999999999986 16.1200000000000010 26.3200000000000003
 30.3999999999999986 18.1600000000000001 24.2800000000000011
 28.3599999999999994 16.1200000000000010 28.3599999999999994
 28.3599999999999994 18.1600000000000001 30.3999999999999986
 30.3999999999999986 18.1600000000000001 28.3599999999999994
 28.3599999999999994 22.2400000000000020 14.0800000000000018
 28.3599999999999994 20.2000000000000028 16.1200000000000010
 28.3599999999999994 22.2400000000000020 18.1600000000000001
 30.3999999999999986 20.2000000000000028 18.1600000000000001
 30.3999999999999986 22.2400000000000020 16.1200000000000010
 28.3599999999999994 20.2000000000000028 20.2000000000000028
 28.3599999999999994 22.2400000000000020 22.2400000000000020
 30.3999999999999986 20.2000000000000028 22.2400000000000020
 30.3999999999999986 22.2400000000000020 20.2000000000000028
 28.3599999999999994 20.2000000000000028 24.2800000000000011
 28.3599999999999994 22.2400000000000020 26.3200000000000003
 30.3999999999999986 20.2000000000000028 26.3200000000000003
 30.3999999999999986 22.2400000000000020 24.2800000000000011
 28.3599999999999994 20.2000000000000028 28.3599999999999994
 28.3599999999999994 22.2400000000000020 30.3999999999999986
 30.3999999999999986 20.2000000000000028 30.3999999999999986
 30.3999999999999986 22.2400000000000020 28.3599999999999994
 28.3599999999999994 20.2000000000000028 32.4399999999999977
 28.3599999999999994 22.2400000000000020 34.4800000000000040
 30.3999999999999986 22.2400000000000020 32.4399999999999977
 28.3599999999999994 24.2800000000000011 12.0400000000000009
 28.3599999999999994 26.3200000000000003 14.0800000000000018
 30.3999999999999986 24.2800000000000011 14.0800000000000018
 28.3599999999999994 24.2800000000000011 16.1200000000000010
 28.3599999999999994 26.3200000000000003 18.1600000000000001
 30.3999999999999986 24.2800000000000011 18.1600000000000001
 30.3999999999999986 26.3200000000000003 16.1200000000000010
 28.3599999999999994 24.2800000000000011 20.2000000000000028
 28.3599999999999994 26.3200000000000003 22.2400000000000020
 30.3999999999999986 24.2800000000000011 22.2400000000000020
 30.3999999999999986 26.3200000000000003 20.2000000000000028
 28.3599999999999994 24.2800000000000011 24.2800000000000011
 28.3599999999999994 26.3200000000000003 26.3200000000000003
 30.3999999999999986 24.2800000000000011 26.3200000000000003
 30.3999999999999986 26.3200000000000003 24.2800000000000011
 28.3599999999999994 24.2800000000000011 28.3599999999999994
 28.3599999999999994 26.3200000000000003 30.3999999999999986
 30.3999999999999986 24.2800000000000011 30.3999999999999986
 30.3999999999999986 26.3200000000000003 28.3599999999999994
 28.3599999999999994 24.2800000000000011 32.4399999999999977
 28.3599999999999994 26.3200000000000003 34.4800000000000040
 30.3999999999999986 24.2800000000000011 34.4800000000000040
 30.3999999999999986 26.3200000000000003 32.4399999999999977
 28.3599999999999994 24.2800000000000011 36.5200000000000031
 28.3599999999999994 28.3599999999999994 16.1200000000000010
 28.3599999999999994 30.3999999999999986 18.1600000000000001
 30.3999999999999986 28.3599999999999994 18.1600000000000001
 28.3599999999999994 28.3599999999999994 20.2000000000000028
 28.3599999999999994 30.3999999999999986 22.2400000000000020
 30.3999999999999986 28.3599999999999994 22.2400000000000020
 30.3999999999999986 30.3999999999999986 20.2000000000000028
 28.3599999999999994 28.3599999999999994 24.2800000000000011
 28.3599999999999994 30.3999999999999986 26.3200000000000003
 30.3999999999999986 28.3599999999999994 26.3200000000000003
 30.3999999999999986 30.3999999999999986 24.2800000000000011
 28.3599999999999994 28.3599999999999994 28.3599999999999994
 28.3599999999999994 30.3999999999999986 30.3999999999999986
 30.3999999999999986 28.3599999999999994 30.3999999999999986
 30.3999999999999986 30.3999999999999986 28.3599999999999994
 28.3599999999999994 28.3599999999999994 32.4399999999999977
 28.3599999999999994 32.4399999999999977 20.2000000000000028
 28.3599999999999994 34.4800000000000040 22.2400000000000020
 30.3999999999999986 32.4399999999999977 22.2400000000000020
 28.3599999999999994 32.4399999999999977 24.2800000000000011
 28.3599999999999994 34.4800000000000040 26.3200000000000003
 30.3999999999999986 32.4399999999999977 26.3200000000000003
 30.3999999999999986 34.4800000000000040 24.2800000000000011
 28.3599999999999994 32.4399999999999977 28.3599999999999994
 28.3599999999999994 36.5200000000000031 24.2800000000000011
 32.4399999999999977 18.1600000000000001 22.2400000000000020
 32.4399999999999977 16.1200000000000010 24.2800000000000011
 32.4399999999999977 18.1600000000000001 26.3200000000000003
 34.4800000000000040 18.1600000000000001 24.2800000000000011
 32.4399999999999977 22.2400000000000020 18.1600000000000001
 32.4399999999999977 20.2000000000000028 20.2000000000000028
 32.4399999999999977 22.2400000000000020 22.2400000000000020
 34.4800000000000040 20.2000000000000028 22.2400000000000020
 34.4800000000000040 22.2400000000000020 20.2000000000000028
 32.4399999999999977 20.2000000000000028 24.2800000000000011
 32.4399999999999977 22.2400000000000020 26.3200000000000003
 34.4800000000000040 20.2000000000000028 26.3200000000000003
 34.4800000000000040 22.2400000000000020 24.2800000000000011
 32.4399999999999977 20.2000000000000028 28.3599999999999994
 32.4399999999999977 22.2400000000000020 30.3999999999999986
 34.4800000000000040 22.2400000000000020 28.3599999999999994
 32.4399999999999977 24.2800000000000011 16.1200000000000010
 32.4399999999999977 26.3200000000000003 18.1600000000000001
 34.4800000000000040 24.2800000000000011 18.1600000000000001
 32.4399999999999977 24.2800000000000011 20.2000000000000028
 32.4399999999999977 26.3200000000000003 22.2400000000000020
 34.4800000000000040 24.2800000000000011 22.2400000000000020
 34.4800000000000040 26.3200000000000003 20.2000000000000028
 32.4399999999999977 24.2800000000000011 24.2800000000000011
 32.4399999999999977 26.3200000000000003 26.3200000000000003
 34.4800000000000040 24.2800000000000011 26.3200000000000003
 34.4800000000000040 26.3200000000000003 24.2800000000000011
 32.4399999999999977 24.2800000000000011 28.3599999999999994
 32.4399999999999977 26.3200000000000003 30.3999999999999986
 34.4800000000000040 24.2800000000000011 30.3999999999999986
 34.4800000000000040 26.3200000000000003 28.3599999999999994
 32.4399999999999977 24.2800000000000011 32.4399999999999977
 32.4399999999999977 28.3599999999999994 20.2000000000000028
 32.4399999999999977 30.3999999999999986 22.2400000000000020
 34.4800000000000040 28.3599999999999994 22.2400000000000020
 32.4399999999999977 28.3599999999999994 24.2800000000000011
 32.4399999999999977 30.3999999999999986 26.3200000000000003
 34.4800000000000040 28.3599999999999994 26.3200000000000003
 34.4800000000000040 30.3999999999999986 24.2800000000000011
 32.4399999999999977 28.3599999999999994 28.3599999999999994
 32.4399999999999977 32.4399999999999977 24.2800000000000011
 36.5200000000000031 22.2400000000000020 22.2400000000000020
 36.5200000000000031 20.2000000000000028 24.2800000000000011
 36.5200000000000031 22.2400000000000020 26.3200000000000003
 38.5600000000000023 22.2400000000000020 24.2800000000000011
 36.5200000000000031 24.2800000000000011 20.2000000000000028
 36.5200000000000031 26.3200000000000003 22.2400000000000020
 38.5600000000000023 24.2800000000000011 22.2400000000000020
 36.5200000000000031 24.2800000000000011 24.2800000000000011
 36.5200000000000031 26.3200000000000003 26.3200000000000003
 38.5600000000000023 24.2800000000000011 26.3200000000000003
 38.5600000000000023 26.3200000000000003 24.2800000000000011
 36.5200000000000031 24.2800000000000011 28.3599999999999994
 36.5200000000000031 28.3599999999999994 24.2800000000000011
