Pt 
 1.0000000000000000
    24.7157674872591571    0.0000000000000000    0.0000000000000000
     0.0000000000000000   24.7157674872591571    0.0000000000000000
     0.0000000000000000    0.0000000000000000   24.7157674872591571
 Pt 
  13
Cartesian
 12.3578837436295785 12.3578837436295785 12.3578837436295785
 14.7157674872591571 12.3578837436295785 10.9006314485456564
 14.7157674872591571 12.3578837436295785 13.8151360387135007
 10.0000000000000000 12.3578837436295785 10.9006314485456564
 10.0000000000000000 12.3578837436295785 13.8151360387135007
 10.9006314485456564 14.7157674872591571 12.3578837436295785
 13.8151360387135007 14.7157674872591571 12.3578837436295785
 10.9006314485456564 10.0000000000000000 12.3578837436295785
 13.8151360387135007 10.0000000000000000 12.3578837436295785
 12.3578837436295785 10.9006314485456564 14.7157674872591571
 12.3578837436295785 13.8151360387135007 14.7157674872591571
 12.3578837436295785 10.9006314485456564 10.0000000000000000
 12.3578837436295785 13.8151360387135007 10.0000000000000000
