Pt 
 1.0000000000000000
    38.2640889427411111    0.0000000000000000    0.0000000000000000
     0.0000000000000000   37.3701808031881981    0.0000000000000000
     0.0000000000000000    0.0000000000000000   31.0874343290050632
 Pt 
 105
Cartesian
 19.1320444713705555 17.7681810114781413 10.0000000000000000
 19.1320444713705555 17.7681810114781413 12.7718585822512658
 19.1320444713705555 17.7681810114781413 15.5437171645025316
 19.1320444713705555 17.7681810114781413 18.3155757467537974
 19.1320444713705555 17.7681810114781413 21.0874343290050632
 21.4150555892131962 18.5099762903839178 11.3859292911256311
 21.4150555892131962 18.5099762903839178 14.1577878733768987
 21.4150555892131962 18.5099762903839178 16.9296464556281663
 21.4150555892131962 18.5099762903839178 19.7015050378794321
 19.1320444713705555 20.1686809594056555 11.3859292911256311
 19.1320444713705555 20.1686809594056555 14.1577878733768987
 19.1320444713705555 20.1686809594056555 16.9296464556281663
 19.1320444713705555 20.1686809594056555 19.7015050378794321
 16.8490333535279149 18.5099762903839213 11.3859292911256311
 16.8490333535279149 18.5099762903839213 14.1577878733768987
 16.8490333535279149 18.5099762903839213 16.9296464556281663
 16.8490333535279149 18.5099762903839213 19.7015050378794321
 17.7210660038499128 15.8261357586086060 11.3859292911256311
 17.7210660038499128 15.8261357586086060 14.1577878733768987
 17.7210660038499128 15.8261357586086060 16.9296464556281663
 17.7210660038499128 15.8261357586086060 19.7015050378794321
 20.5430229388911982 15.8261357586086060 11.3859292911256311
 20.5430229388911982 15.8261357586086060 14.1577878733768987
 20.5430229388911982 15.8261357586086060 16.9296464556281663
 20.5430229388911982 15.8261357586086060 19.7015050378794321
 23.6980667070558333 19.2517715692896978 12.7718585822512658
 23.6980667070558333 19.2517715692896978 15.5437171645025316
 23.6980667070558333 19.2517715692896978 18.3155757467537974
 21.4150555892131962 20.9104762383114320 12.7718585822512658
 21.4150555892131962 20.9104762383114320 15.5437171645025316
 21.4150555892131962 20.9104762383114320 18.3155757467537974
 19.1320444713705555 22.5691809073331697 12.7718585822512658
 19.1320444713705555 22.5691809073331697 15.5437171645025316
 19.1320444713705555 22.5691809073331697 18.3155757467537974
 16.8490333535279149 20.9104762383114320 12.7718585822512658
 16.8490333535279149 20.9104762383114320 15.5437171645025316
 16.8490333535279149 20.9104762383114320 18.3155757467537974
 14.5660222356852778 19.2517715692896978 12.7718585822512658
 14.5660222356852778 19.2517715692896978 15.5437171645025316
 14.5660222356852778 19.2517715692896978 18.3155757467537974
 15.4380548860072722 16.5679310375143842 12.7718585822512658
 15.4380548860072722 16.5679310375143842 15.5437171645025316
 15.4380548860072722 16.5679310375143842 18.3155757467537974
 16.3100875363292701 13.8840905057390707 12.7718585822512658
 16.3100875363292701 13.8840905057390707 15.5437171645025316
 16.3100875363292701 13.8840905057390707 18.3155757467537974
 19.1320444713705555 13.8840905057390707 12.7718585822512658
 19.1320444713705555 13.8840905057390707 15.5437171645025316
 19.1320444713705555 13.8840905057390707 18.3155757467537974
 21.9540014064118409 13.8840905057390707 12.7718585822512658
 21.9540014064118409 13.8840905057390707 15.5437171645025316
 21.9540014064118409 13.8840905057390707 18.3155757467537974
 22.8260340567338389 16.5679310375143842 12.7718585822512658
 22.8260340567338389 16.5679310375143842 15.5437171645025316
 22.8260340567338389 16.5679310375143842 18.3155757467537974
 25.9810778248984739 19.9935668481954743 14.1577878733768987
 25.9810778248984739 19.9935668481954743 16.9296464556281663
 23.6980667070558333 21.6522715172172120 14.1577878733768987
 23.6980667070558333 21.6522715172172120 16.9296464556281663
 21.4150555892131962 23.3109761862389462 14.1577878733768987
 21.4150555892131962 23.3109761862389462 16.9296464556281663
 19.1320444713705555 24.9696808552606839 14.1577878733768987
 19.1320444713705555 24.9696808552606839 16.9296464556281663
 16.8490333535279149 23.3109761862389462 14.1577878733768987
 16.8490333535279149 23.3109761862389462 16.9296464556281663
 14.5660222356852778 21.6522715172172120 14.1577878733768987
 14.5660222356852778 21.6522715172172120 16.9296464556281663
 12.2830111178426371 19.9935668481954778 14.1577878733768987
 12.2830111178426371 19.9935668481954778 16.9296464556281663
 13.1550437681646351 17.3097263164201642 14.1577878733768987
 13.1550437681646351 17.3097263164201642 16.9296464556281663
 14.0270764184866294 14.6258857846448507 14.1577878733768987
 14.0270764184866294 14.6258857846448507 16.9296464556281663
 14.8991090688086274 11.9420452528695371 14.1577878733768987
 14.8991090688086274 11.9420452528695371 16.9296464556281663
 17.7210660038499128 11.9420452528695353 14.1577878733768987
 17.7210660038499128 11.9420452528695353 16.9296464556281663
 20.5430229388911982 11.9420452528695336 14.1577878733768987
 20.5430229388911982 11.9420452528695336 16.9296464556281663
 23.3649798739324837 11.9420452528695336 14.1577878733768987
 23.3649798739324837 11.9420452528695336 16.9296464556281663
 24.2370125242544781 14.6258857846448471 14.1577878733768987
 24.2370125242544781 14.6258857846448471 16.9296464556281663
 25.1090451745764760 17.3097263164201607 14.1577878733768987
 25.1090451745764760 17.3097263164201607 16.9296464556281663
 28.2640889427411111 20.7353621271012507 15.5437171645025316
 25.9810778248984739 22.3940667961229884 15.5437171645025316
 23.6980667070558333 24.0527714651447262 15.5437171645025316
 21.4150555892131962 25.7114761341664604 15.5437171645025316
 19.1320444713705555 27.3701808031881981 15.5437171645025316
 16.8490333535279149 25.7114761341664604 15.5437171645025316
 14.5660222356852778 24.0527714651447262 15.5437171645025316
 12.2830111178426371 22.3940667961229920 15.5437171645025316
  9.9999999999999982 20.7353621271012543 15.5437171645025316
 10.8720326503219944 18.0515215953259407 15.5437171645025316
 11.7440653006439906 15.3676810635506271 15.5437171645025316
 12.6160979509659867 12.6838405317753136 15.5437171645025316
 13.4881306012879847 10.0000000000000000 15.5437171645025316
 16.3100875363292701 10.0000000000000000 15.5437171645025316
 19.1320444713705555 10.0000000000000000 15.5437171645025316
 21.9540014064118409  9.9999999999999982 15.5437171645025316
 24.7759583414531228  9.9999999999999982 15.5437171645025316
 25.6479909917751208 12.6838405317753100 15.5437171645025316
 26.5200236420971187 15.3676810635506254 15.5437171645025316
 27.3920562924191167 18.0515215953259371 15.5437171645025316
