Pt 
 1.0000000000000000
    38.2640889427411111    0.0000000000000000    0.0000000000000000
     0.0000000000000000   37.3701808031881981    0.0000000000000000
     0.0000000000000000    0.0000000000000000   50.4904444047639274
 Pt 
 462
Cartesian
 19.1320444713705555 17.7681810114781413 10.0000000000000036
 19.1320444713705555 17.7681810114781413 12.7718585822512694
 19.1320444713705555 17.7681810114781413 15.5437171645025352
 19.1320444713705555 17.7681810114781413 18.3155757467538010
 19.1320444713705555 17.7681810114781413 21.0874343290050703
 19.1320444713705555 17.7681810114781413 23.8592929112563326
 19.1320444713705555 17.7681810114781413 26.6311514935076019
 19.1320444713705555 17.7681810114781413 29.4030100757588677
 19.1320444713705555 17.7681810114781413 32.1748686580101335
 19.1320444713705555 17.7681810114781413 34.9467272402613958
 19.1320444713705555 17.7681810114781413 37.7185858225126651
 19.1320444713705555 17.7681810114781413 40.4904444047639345
 21.4150555892131962 18.5099762903839178 11.3859292911256365
 21.4150555892131962 18.5099762903839178 14.1577878733769023
 21.4150555892131962 18.5099762903839178 16.9296464556281698
 21.4150555892131962 18.5099762903839178 19.7015050378794356
 21.4150555892131962 18.5099762903839178 22.4733636201307014
 21.4150555892131962 18.5099762903839178 25.2452222023819672
 21.4150555892131962 18.5099762903839178 28.0170807846332366
 21.4150555892131962 18.5099762903839178 30.7889393668844988
 21.4150555892131962 18.5099762903839178 33.5607979491357682
 21.4150555892131962 18.5099762903839178 36.3326565313870304
 21.4150555892131962 18.5099762903839178 39.1045151136382998
 19.1320444713705555 20.1686809594056555 11.3859292911256365
 19.1320444713705555 20.1686809594056555 14.1577878733769023
 19.1320444713705555 20.1686809594056555 16.9296464556281698
 19.1320444713705555 20.1686809594056555 19.7015050378794356
 19.1320444713705555 20.1686809594056555 22.4733636201307014
 19.1320444713705555 20.1686809594056555 25.2452222023819672
 19.1320444713705555 20.1686809594056555 28.0170807846332366
 19.1320444713705555 20.1686809594056555 30.7889393668844988
 19.1320444713705555 20.1686809594056555 33.5607979491357682
 19.1320444713705555 20.1686809594056555 36.3326565313870304
 19.1320444713705555 20.1686809594056555 39.1045151136382998
 16.8490333535279149 18.5099762903839213 11.3859292911256365
 16.8490333535279149 18.5099762903839213 14.1577878733769023
 16.8490333535279149 18.5099762903839213 16.9296464556281698
 16.8490333535279149 18.5099762903839213 19.7015050378794356
 16.8490333535279149 18.5099762903839213 22.4733636201307014
 16.8490333535279149 18.5099762903839213 25.2452222023819672
 16.8490333535279149 18.5099762903839213 28.0170807846332366
 16.8490333535279149 18.5099762903839213 30.7889393668844988
 16.8490333535279149 18.5099762903839213 33.5607979491357682
 16.8490333535279149 18.5099762903839213 36.3326565313870304
 16.8490333535279149 18.5099762903839213 39.1045151136382998
 17.7210660038499128 15.8261357586086060 11.3859292911256365
 17.7210660038499128 15.8261357586086060 14.1577878733769023
 17.7210660038499128 15.8261357586086060 16.9296464556281698
 17.7210660038499128 15.8261357586086060 19.7015050378794356
 17.7210660038499128 15.8261357586086060 22.4733636201307014
 17.7210660038499128 15.8261357586086060 25.2452222023819672
 17.7210660038499128 15.8261357586086060 28.0170807846332366
 17.7210660038499128 15.8261357586086060 30.7889393668844988
 17.7210660038499128 15.8261357586086060 33.5607979491357682
 17.7210660038499128 15.8261357586086060 36.3326565313870304
 17.7210660038499128 15.8261357586086060 39.1045151136382998
 20.5430229388911982 15.8261357586086060 11.3859292911256365
 20.5430229388911982 15.8261357586086060 14.1577878733769023
 20.5430229388911982 15.8261357586086060 16.9296464556281698
 20.5430229388911982 15.8261357586086060 19.7015050378794356
 20.5430229388911982 15.8261357586086060 22.4733636201307014
 20.5430229388911982 15.8261357586086060 25.2452222023819672
 20.5430229388911982 15.8261357586086060 28.0170807846332366
 20.5430229388911982 15.8261357586086060 30.7889393668844988
 20.5430229388911982 15.8261357586086060 33.5607979491357682
 20.5430229388911982 15.8261357586086060 36.3326565313870304
 20.5430229388911982 15.8261357586086060 39.1045151136382998
 23.6980667070558333 19.2517715692896978 12.7718585822512694
 23.6980667070558333 19.2517715692896978 15.5437171645025352
 23.6980667070558333 19.2517715692896978 18.3155757467538010
 23.6980667070558333 19.2517715692896978 21.0874343290050703
 23.6980667070558333 19.2517715692896978 23.8592929112563326
 23.6980667070558333 19.2517715692896978 26.6311514935076019
 23.6980667070558333 19.2517715692896978 29.4030100757588677
 23.6980667070558333 19.2517715692896978 32.1748686580101335
 23.6980667070558333 19.2517715692896978 34.9467272402613958
 23.6980667070558333 19.2517715692896978 37.7185858225126651
 21.4150555892131962 20.9104762383114320 12.7718585822512694
 21.4150555892131962 20.9104762383114320 15.5437171645025352
 21.4150555892131962 20.9104762383114320 18.3155757467538010
 21.4150555892131962 20.9104762383114320 21.0874343290050703
 21.4150555892131962 20.9104762383114320 23.8592929112563326
 21.4150555892131962 20.9104762383114320 26.6311514935076019
 21.4150555892131962 20.9104762383114320 29.4030100757588677
 21.4150555892131962 20.9104762383114320 32.1748686580101335
 21.4150555892131962 20.9104762383114320 34.9467272402613958
 21.4150555892131962 20.9104762383114320 37.7185858225126651
 19.1320444713705555 22.5691809073331697 12.7718585822512694
 19.1320444713705555 22.5691809073331697 15.5437171645025352
 19.1320444713705555 22.5691809073331697 18.3155757467538010
 19.1320444713705555 22.5691809073331697 21.0874343290050703
 19.1320444713705555 22.5691809073331697 23.8592929112563326
 19.1320444713705555 22.5691809073331697 26.6311514935076019
 19.1320444713705555 22.5691809073331697 29.4030100757588677
 19.1320444713705555 22.5691809073331697 32.1748686580101335
 19.1320444713705555 22.5691809073331697 34.9467272402613958
 19.1320444713705555 22.5691809073331697 37.7185858225126651
 16.8490333535279149 20.9104762383114320 12.7718585822512694
 16.8490333535279149 20.9104762383114320 15.5437171645025352
 16.8490333535279149 20.9104762383114320 18.3155757467538010
 16.8490333535279149 20.9104762383114320 21.0874343290050703
 16.8490333535279149 20.9104762383114320 23.8592929112563326
 16.8490333535279149 20.9104762383114320 26.6311514935076019
 16.8490333535279149 20.9104762383114320 29.4030100757588677
 16.8490333535279149 20.9104762383114320 32.1748686580101335
 16.8490333535279149 20.9104762383114320 34.9467272402613958
 16.8490333535279149 20.9104762383114320 37.7185858225126651
 14.5660222356852778 19.2517715692896978 12.7718585822512694
 14.5660222356852778 19.2517715692896978 15.5437171645025352
 14.5660222356852778 19.2517715692896978 18.3155757467538010
 14.5660222356852778 19.2517715692896978 21.0874343290050703
 14.5660222356852778 19.2517715692896978 23.8592929112563326
 14.5660222356852778 19.2517715692896978 26.6311514935076019
 14.5660222356852778 19.2517715692896978 29.4030100757588677
 14.5660222356852778 19.2517715692896978 32.1748686580101335
 14.5660222356852778 19.2517715692896978 34.9467272402613958
 14.5660222356852778 19.2517715692896978 37.7185858225126651
 15.4380548860072722 16.5679310375143842 12.7718585822512694
 15.4380548860072722 16.5679310375143842 15.5437171645025352
 15.4380548860072722 16.5679310375143842 18.3155757467538010
 15.4380548860072722 16.5679310375143842 21.0874343290050703
 15.4380548860072722 16.5679310375143842 23.8592929112563326
 15.4380548860072722 16.5679310375143842 26.6311514935076019
 15.4380548860072722 16.5679310375143842 29.4030100757588677
 15.4380548860072722 16.5679310375143842 32.1748686580101335
 15.4380548860072722 16.5679310375143842 34.9467272402613958
 15.4380548860072722 16.5679310375143842 37.7185858225126651
 16.3100875363292701 13.8840905057390707 12.7718585822512694
 16.3100875363292701 13.8840905057390707 15.5437171645025352
 16.3100875363292701 13.8840905057390707 18.3155757467538010
 16.3100875363292701 13.8840905057390707 21.0874343290050703
 16.3100875363292701 13.8840905057390707 23.8592929112563326
 16.3100875363292701 13.8840905057390707 26.6311514935076019
 16.3100875363292701 13.8840905057390707 29.4030100757588677
 16.3100875363292701 13.8840905057390707 32.1748686580101335
 16.3100875363292701 13.8840905057390707 34.9467272402613958
 16.3100875363292701 13.8840905057390707 37.7185858225126651
 19.1320444713705555 13.8840905057390707 12.7718585822512694
 19.1320444713705555 13.8840905057390707 15.5437171645025352
 19.1320444713705555 13.8840905057390707 18.3155757467538010
 19.1320444713705555 13.8840905057390707 21.0874343290050703
 19.1320444713705555 13.8840905057390707 23.8592929112563326
 19.1320444713705555 13.8840905057390707 26.6311514935076019
 19.1320444713705555 13.8840905057390707 29.4030100757588677
 19.1320444713705555 13.8840905057390707 32.1748686580101335
 19.1320444713705555 13.8840905057390707 34.9467272402613958
 19.1320444713705555 13.8840905057390707 37.7185858225126651
 21.9540014064118409 13.8840905057390707 12.7718585822512694
 21.9540014064118409 13.8840905057390707 15.5437171645025352
 21.9540014064118409 13.8840905057390707 18.3155757467538010
 21.9540014064118409 13.8840905057390707 21.0874343290050703
 21.9540014064118409 13.8840905057390707 23.8592929112563326
 21.9540014064118409 13.8840905057390707 26.6311514935076019
 21.9540014064118409 13.8840905057390707 29.4030100757588677
 21.9540014064118409 13.8840905057390707 32.1748686580101335
 21.9540014064118409 13.8840905057390707 34.9467272402613958
 21.9540014064118409 13.8840905057390707 37.7185858225126651
 22.8260340567338389 16.5679310375143842 12.7718585822512694
 22.8260340567338389 16.5679310375143842 15.5437171645025352
 22.8260340567338389 16.5679310375143842 18.3155757467538010
 22.8260340567338389 16.5679310375143842 21.0874343290050703
 22.8260340567338389 16.5679310375143842 23.8592929112563326
 22.8260340567338389 16.5679310375143842 26.6311514935076019
 22.8260340567338389 16.5679310375143842 29.4030100757588677
 22.8260340567338389 16.5679310375143842 32.1748686580101335
 22.8260340567338389 16.5679310375143842 34.9467272402613958
 22.8260340567338389 16.5679310375143842 37.7185858225126651
 25.9810778248984739 19.9935668481954743 14.1577878733769023
 25.9810778248984739 19.9935668481954743 16.9296464556281663
 25.9810778248984739 19.9935668481954743 19.7015050378794356
 25.9810778248984739 19.9935668481954743 22.4733636201307014
 25.9810778248984739 19.9935668481954743 25.2452222023819672
 25.9810778248984739 19.9935668481954743 28.0170807846332330
 25.9810778248984739 19.9935668481954743 30.7889393668844988
 25.9810778248984739 19.9935668481954743 33.5607979491357682
 25.9810778248984739 19.9935668481954743 36.3326565313870304
 23.6980667070558333 21.6522715172172120 14.1577878733769023
 23.6980667070558333 21.6522715172172120 16.9296464556281663
 23.6980667070558333 21.6522715172172120 19.7015050378794356
 23.6980667070558333 21.6522715172172120 22.4733636201307014
 23.6980667070558333 21.6522715172172120 25.2452222023819672
 23.6980667070558333 21.6522715172172120 28.0170807846332330
 23.6980667070558333 21.6522715172172120 30.7889393668844988
 23.6980667070558333 21.6522715172172120 33.5607979491357682
 23.6980667070558333 21.6522715172172120 36.3326565313870304
 21.4150555892131962 23.3109761862389462 14.1577878733769023
 21.4150555892131962 23.3109761862389462 16.9296464556281663
 21.4150555892131962 23.3109761862389462 19.7015050378794356
 21.4150555892131962 23.3109761862389462 22.4733636201307014
 21.4150555892131962 23.3109761862389462 25.2452222023819672
 21.4150555892131962 23.3109761862389462 28.0170807846332330
 21.4150555892131962 23.3109761862389462 30.7889393668844988
 21.4150555892131962 23.3109761862389462 33.5607979491357682
 21.4150555892131962 23.3109761862389462 36.3326565313870304
 19.1320444713705555 24.9696808552606839 14.1577878733769023
 19.1320444713705555 24.9696808552606839 16.9296464556281663
 19.1320444713705555 24.9696808552606839 19.7015050378794356
 19.1320444713705555 24.9696808552606839 22.4733636201307014
 19.1320444713705555 24.9696808552606839 25.2452222023819672
 19.1320444713705555 24.9696808552606839 28.0170807846332330
 19.1320444713705555 24.9696808552606839 30.7889393668844988
 19.1320444713705555 24.9696808552606839 33.5607979491357682
 19.1320444713705555 24.9696808552606839 36.3326565313870304
 16.8490333535279149 23.3109761862389462 14.1577878733769023
 16.8490333535279149 23.3109761862389462 16.9296464556281663
 16.8490333535279149 23.3109761862389462 19.7015050378794356
 16.8490333535279149 23.3109761862389462 22.4733636201307014
 16.8490333535279149 23.3109761862389462 25.2452222023819672
 16.8490333535279149 23.3109761862389462 28.0170807846332330
 16.8490333535279149 23.3109761862389462 30.7889393668844988
 16.8490333535279149 23.3109761862389462 33.5607979491357682
 16.8490333535279149 23.3109761862389462 36.3326565313870304
 14.5660222356852778 21.6522715172172120 14.1577878733769023
 14.5660222356852778 21.6522715172172120 16.9296464556281663
 14.5660222356852778 21.6522715172172120 19.7015050378794356
 14.5660222356852778 21.6522715172172120 22.4733636201307014
 14.5660222356852778 21.6522715172172120 25.2452222023819672
 14.5660222356852778 21.6522715172172120 28.0170807846332330
 14.5660222356852778 21.6522715172172120 30.7889393668844988
 14.5660222356852778 21.6522715172172120 33.5607979491357682
 14.5660222356852778 21.6522715172172120 36.3326565313870304
 12.2830111178426371 19.9935668481954778 14.1577878733769023
 12.2830111178426371 19.9935668481954778 16.9296464556281663
 12.2830111178426371 19.9935668481954778 19.7015050378794356
 12.2830111178426371 19.9935668481954778 22.4733636201307014
 12.2830111178426371 19.9935668481954778 25.2452222023819672
 12.2830111178426371 19.9935668481954778 28.0170807846332330
 12.2830111178426371 19.9935668481954778 30.7889393668844988
 12.2830111178426371 19.9935668481954778 33.5607979491357682
 12.2830111178426371 19.9935668481954778 36.3326565313870304
 13.1550437681646351 17.3097263164201642 14.1577878733769023
 13.1550437681646351 17.3097263164201642 16.9296464556281663
 13.1550437681646351 17.3097263164201642 19.7015050378794356
 13.1550437681646351 17.3097263164201642 22.4733636201307014
 13.1550437681646351 17.3097263164201642 25.2452222023819672
 13.1550437681646351 17.3097263164201642 28.0170807846332330
 13.1550437681646351 17.3097263164201642 30.7889393668844988
 13.1550437681646351 17.3097263164201642 33.5607979491357682
 13.1550437681646351 17.3097263164201642 36.3326565313870304
 14.0270764184866294 14.6258857846448507 14.1577878733769023
 14.0270764184866294 14.6258857846448507 16.9296464556281663
 14.0270764184866294 14.6258857846448507 19.7015050378794356
 14.0270764184866294 14.6258857846448507 22.4733636201307014
 14.0270764184866294 14.6258857846448507 25.2452222023819672
 14.0270764184866294 14.6258857846448507 28.0170807846332330
 14.0270764184866294 14.6258857846448507 30.7889393668844988
 14.0270764184866294 14.6258857846448507 33.5607979491357682
 14.0270764184866294 14.6258857846448507 36.3326565313870304
 14.8991090688086274 11.9420452528695371 14.1577878733769023
 14.8991090688086274 11.9420452528695371 16.9296464556281663
 14.8991090688086274 11.9420452528695371 19.7015050378794356
 14.8991090688086274 11.9420452528695371 22.4733636201307014
 14.8991090688086274 11.9420452528695371 25.2452222023819672
 14.8991090688086274 11.9420452528695371 28.0170807846332330
 14.8991090688086274 11.9420452528695371 30.7889393668844988
 14.8991090688086274 11.9420452528695371 33.5607979491357682
 14.8991090688086274 11.9420452528695371 36.3326565313870304
 17.7210660038499128 11.9420452528695353 14.1577878733769023
 17.7210660038499128 11.9420452528695353 16.9296464556281663
 17.7210660038499128 11.9420452528695353 19.7015050378794356
 17.7210660038499128 11.9420452528695353 22.4733636201307014
 17.7210660038499128 11.9420452528695353 25.2452222023819672
 17.7210660038499128 11.9420452528695353 28.0170807846332330
 17.7210660038499128 11.9420452528695353 30.7889393668844988
 17.7210660038499128 11.9420452528695353 33.5607979491357682
 17.7210660038499128 11.9420452528695353 36.3326565313870304
 20.5430229388911982 11.9420452528695336 14.1577878733769023
 20.5430229388911982 11.9420452528695336 16.9296464556281663
 20.5430229388911982 11.9420452528695336 19.7015050378794356
 20.5430229388911982 11.9420452528695336 22.4733636201307014
 20.5430229388911982 11.9420452528695336 25.2452222023819672
 20.5430229388911982 11.9420452528695336 28.0170807846332330
 20.5430229388911982 11.9420452528695336 30.7889393668844988
 20.5430229388911982 11.9420452528695336 33.5607979491357682
 20.5430229388911982 11.9420452528695336 36.3326565313870304
 23.3649798739324837 11.9420452528695336 14.1577878733769023
 23.3649798739324837 11.9420452528695336 16.9296464556281663
 23.3649798739324837 11.9420452528695336 19.7015050378794356
 23.3649798739324837 11.9420452528695336 22.4733636201307014
 23.3649798739324837 11.9420452528695336 25.2452222023819672
 23.3649798739324837 11.9420452528695336 28.0170807846332330
 23.3649798739324837 11.9420452528695336 30.7889393668844988
 23.3649798739324837 11.9420452528695336 33.5607979491357682
 23.3649798739324837 11.9420452528695336 36.3326565313870304
 24.2370125242544781 14.6258857846448471 14.1577878733769023
 24.2370125242544781 14.6258857846448471 16.9296464556281663
 24.2370125242544781 14.6258857846448471 19.7015050378794356
 24.2370125242544781 14.6258857846448471 22.4733636201307014
 24.2370125242544781 14.6258857846448471 25.2452222023819672
 24.2370125242544781 14.6258857846448471 28.0170807846332330
 24.2370125242544781 14.6258857846448471 30.7889393668844988
 24.2370125242544781 14.6258857846448471 33.5607979491357682
 24.2370125242544781 14.6258857846448471 36.3326565313870304
 25.1090451745764760 17.3097263164201607 14.1577878733769023
 25.1090451745764760 17.3097263164201607 16.9296464556281663
 25.1090451745764760 17.3097263164201607 19.7015050378794356
 25.1090451745764760 17.3097263164201607 22.4733636201307014
 25.1090451745764760 17.3097263164201607 25.2452222023819672
 25.1090451745764760 17.3097263164201607 28.0170807846332330
 25.1090451745764760 17.3097263164201607 30.7889393668844988
 25.1090451745764760 17.3097263164201607 33.5607979491357682
 25.1090451745764760 17.3097263164201607 36.3326565313870304
 28.2640889427411111 20.7353621271012507 15.5437171645025352
 28.2640889427411111 20.7353621271012507 18.3155757467538010
 28.2640889427411111 20.7353621271012507 21.0874343290050668
 28.2640889427411111 20.7353621271012507 23.8592929112563326
 28.2640889427411111 20.7353621271012507 26.6311514935076019
 28.2640889427411111 20.7353621271012507 29.4030100757588642
 28.2640889427411111 20.7353621271012507 32.1748686580101335
 28.2640889427411111 20.7353621271012507 34.9467272402613958
 25.9810778248984739 22.3940667961229884 15.5437171645025352
 25.9810778248984739 22.3940667961229884 18.3155757467538010
 25.9810778248984739 22.3940667961229884 21.0874343290050668
 25.9810778248984739 22.3940667961229884 23.8592929112563326
 25.9810778248984739 22.3940667961229884 26.6311514935076019
 25.9810778248984739 22.3940667961229884 29.4030100757588642
 25.9810778248984739 22.3940667961229884 32.1748686580101335
 25.9810778248984739 22.3940667961229884 34.9467272402613958
 23.6980667070558333 24.0527714651447262 15.5437171645025352
 23.6980667070558333 24.0527714651447262 18.3155757467538010
 23.6980667070558333 24.0527714651447262 21.0874343290050668
 23.6980667070558333 24.0527714651447262 23.8592929112563326
 23.6980667070558333 24.0527714651447262 26.6311514935076019
 23.6980667070558333 24.0527714651447262 29.4030100757588642
 23.6980667070558333 24.0527714651447262 32.1748686580101335
 23.6980667070558333 24.0527714651447262 34.9467272402613958
 21.4150555892131962 25.7114761341664604 15.5437171645025352
 21.4150555892131962 25.7114761341664604 18.3155757467538010
 21.4150555892131962 25.7114761341664604 21.0874343290050668
 21.4150555892131962 25.7114761341664604 23.8592929112563326
 21.4150555892131962 25.7114761341664604 26.6311514935076019
 21.4150555892131962 25.7114761341664604 29.4030100757588642
 21.4150555892131962 25.7114761341664604 32.1748686580101335
 21.4150555892131962 25.7114761341664604 34.9467272402613958
 19.1320444713705555 27.3701808031881981 15.5437171645025352
 19.1320444713705555 27.3701808031881981 18.3155757467538010
 19.1320444713705555 27.3701808031881981 21.0874343290050668
 19.1320444713705555 27.3701808031881981 23.8592929112563326
 19.1320444713705555 27.3701808031881981 26.6311514935076019
 19.1320444713705555 27.3701808031881981 29.4030100757588642
 19.1320444713705555 27.3701808031881981 32.1748686580101335
 19.1320444713705555 27.3701808031881981 34.9467272402613958
 16.8490333535279149 25.7114761341664604 15.5437171645025352
 16.8490333535279149 25.7114761341664604 18.3155757467538010
 16.8490333535279149 25.7114761341664604 21.0874343290050668
 16.8490333535279149 25.7114761341664604 23.8592929112563326
 16.8490333535279149 25.7114761341664604 26.6311514935076019
 16.8490333535279149 25.7114761341664604 29.4030100757588642
 16.8490333535279149 25.7114761341664604 32.1748686580101335
 16.8490333535279149 25.7114761341664604 34.9467272402613958
 14.5660222356852778 24.0527714651447262 15.5437171645025352
 14.5660222356852778 24.0527714651447262 18.3155757467538010
 14.5660222356852778 24.0527714651447262 21.0874343290050668
 14.5660222356852778 24.0527714651447262 23.8592929112563326
 14.5660222356852778 24.0527714651447262 26.6311514935076019
 14.5660222356852778 24.0527714651447262 29.4030100757588642
 14.5660222356852778 24.0527714651447262 32.1748686580101335
 14.5660222356852778 24.0527714651447262 34.9467272402613958
 12.2830111178426371 22.3940667961229920 15.5437171645025352
 12.2830111178426371 22.3940667961229920 18.3155757467538010
 12.2830111178426371 22.3940667961229920 21.0874343290050668
 12.2830111178426371 22.3940667961229920 23.8592929112563326
 12.2830111178426371 22.3940667961229920 26.6311514935076019
 12.2830111178426371 22.3940667961229920 29.4030100757588642
 12.2830111178426371 22.3940667961229920 32.1748686580101335
 12.2830111178426371 22.3940667961229920 34.9467272402613958
  9.9999999999999982 20.7353621271012543 15.5437171645025352
  9.9999999999999982 20.7353621271012543 18.3155757467538010
  9.9999999999999982 20.7353621271012543 21.0874343290050668
  9.9999999999999982 20.7353621271012543 23.8592929112563326
  9.9999999999999982 20.7353621271012543 26.6311514935076019
  9.9999999999999982 20.7353621271012543 29.4030100757588642
  9.9999999999999982 20.7353621271012543 32.1748686580101335
  9.9999999999999982 20.7353621271012543 34.9467272402613958
 10.8720326503219944 18.0515215953259407 15.5437171645025352
 10.8720326503219944 18.0515215953259407 18.3155757467538010
 10.8720326503219944 18.0515215953259407 21.0874343290050668
 10.8720326503219944 18.0515215953259407 23.8592929112563326
 10.8720326503219944 18.0515215953259407 26.6311514935076019
 10.8720326503219944 18.0515215953259407 29.4030100757588642
 10.8720326503219944 18.0515215953259407 32.1748686580101335
 10.8720326503219944 18.0515215953259407 34.9467272402613958
 11.7440653006439906 15.3676810635506271 15.5437171645025352
 11.7440653006439906 15.3676810635506271 18.3155757467538010
 11.7440653006439906 15.3676810635506271 21.0874343290050668
 11.7440653006439906 15.3676810635506271 23.8592929112563326
 11.7440653006439906 15.3676810635506271 26.6311514935076019
 11.7440653006439906 15.3676810635506271 29.4030100757588642
 11.7440653006439906 15.3676810635506271 32.1748686580101335
 11.7440653006439906 15.3676810635506271 34.9467272402613958
 12.6160979509659867 12.6838405317753136 15.5437171645025352
 12.6160979509659867 12.6838405317753136 18.3155757467538010
 12.6160979509659867 12.6838405317753136 21.0874343290050668
 12.6160979509659867 12.6838405317753136 23.8592929112563326
 12.6160979509659867 12.6838405317753136 26.6311514935076019
 12.6160979509659867 12.6838405317753136 29.4030100757588642
 12.6160979509659867 12.6838405317753136 32.1748686580101335
 12.6160979509659867 12.6838405317753136 34.9467272402613958
 13.4881306012879847 10.0000000000000000 15.5437171645025352
 13.4881306012879847 10.0000000000000000 18.3155757467538010
 13.4881306012879847 10.0000000000000000 21.0874343290050668
 13.4881306012879847 10.0000000000000000 23.8592929112563326
 13.4881306012879847 10.0000000000000000 26.6311514935076019
 13.4881306012879847 10.0000000000000000 29.4030100757588642
 13.4881306012879847 10.0000000000000000 32.1748686580101335
 13.4881306012879847 10.0000000000000000 34.9467272402613958
 16.3100875363292701 10.0000000000000000 15.5437171645025352
 16.3100875363292701 10.0000000000000000 18.3155757467538010
 16.3100875363292701 10.0000000000000000 21.0874343290050668
 16.3100875363292701 10.0000000000000000 23.8592929112563326
 16.3100875363292701 10.0000000000000000 26.6311514935076019
 16.3100875363292701 10.0000000000000000 29.4030100757588642
 16.3100875363292701 10.0000000000000000 32.1748686580101335
 16.3100875363292701 10.0000000000000000 34.9467272402613958
 19.1320444713705555 10.0000000000000000 15.5437171645025352
 19.1320444713705555 10.0000000000000000 18.3155757467538010
 19.1320444713705555 10.0000000000000000 21.0874343290050668
 19.1320444713705555 10.0000000000000000 23.8592929112563326
 19.1320444713705555 10.0000000000000000 26.6311514935076019
 19.1320444713705555 10.0000000000000000 29.4030100757588642
 19.1320444713705555 10.0000000000000000 32.1748686580101335
 19.1320444713705555 10.0000000000000000 34.9467272402613958
 21.9540014064118409  9.9999999999999982 15.5437171645025352
 21.9540014064118409  9.9999999999999982 18.3155757467538010
 21.9540014064118409  9.9999999999999982 21.0874343290050668
 21.9540014064118409  9.9999999999999982 23.8592929112563326
 21.9540014064118409  9.9999999999999982 26.6311514935076019
 21.9540014064118409  9.9999999999999982 29.4030100757588642
 21.9540014064118409  9.9999999999999982 32.1748686580101335
 21.9540014064118409  9.9999999999999982 34.9467272402613958
 24.7759583414531228  9.9999999999999982 15.5437171645025352
 24.7759583414531228  9.9999999999999982 18.3155757467538010
 24.7759583414531228  9.9999999999999982 21.0874343290050668
 24.7759583414531228  9.9999999999999982 23.8592929112563326
 24.7759583414531228  9.9999999999999982 26.6311514935076019
 24.7759583414531228  9.9999999999999982 29.4030100757588642
 24.7759583414531228  9.9999999999999982 32.1748686580101335
 24.7759583414531228  9.9999999999999982 34.9467272402613958
 25.6479909917751208 12.6838405317753100 15.5437171645025352
 25.6479909917751208 12.6838405317753100 18.3155757467538010
 25.6479909917751208 12.6838405317753100 21.0874343290050668
 25.6479909917751208 12.6838405317753100 23.8592929112563326
 25.6479909917751208 12.6838405317753100 26.6311514935076019
 25.6479909917751208 12.6838405317753100 29.4030100757588642
 25.6479909917751208 12.6838405317753100 32.1748686580101335
 25.6479909917751208 12.6838405317753100 34.9467272402613958
 26.5200236420971187 15.3676810635506254 15.5437171645025352
 26.5200236420971187 15.3676810635506254 18.3155757467538010
 26.5200236420971187 15.3676810635506254 21.0874343290050668
 26.5200236420971187 15.3676810635506254 23.8592929112563326
 26.5200236420971187 15.3676810635506254 26.6311514935076019
 26.5200236420971187 15.3676810635506254 29.4030100757588642
 26.5200236420971187 15.3676810635506254 32.1748686580101335
 26.5200236420971187 15.3676810635506254 34.9467272402613958
 27.3920562924191167 18.0515215953259371 15.5437171645025352
 27.3920562924191167 18.0515215953259371 18.3155757467538010
 27.3920562924191167 18.0515215953259371 21.0874343290050668
 27.3920562924191167 18.0515215953259371 23.8592929112563326
 27.3920562924191167 18.0515215953259371 26.6311514935076019
 27.3920562924191167 18.0515215953259371 29.4030100757588642
 27.3920562924191167 18.0515215953259371 32.1748686580101335
 27.3920562924191167 18.0515215953259371 34.9467272402613958
