Pt 
 1.0000000000000000
    35.6799999999999997    0.0000000000000000    0.0000000000000000
     0.0000000000000000   35.6799999999999997    0.0000000000000000
     0.0000000000000000    0.0000000000000000   35.6799999999999997
 Pt 
  85
Cartesian
 11.9600000000000009 15.8799999999999990 17.8399999999999999
 11.9600000000000009 17.8399999999999999 15.8799999999999990
 10.0000000000000000 17.8399999999999999 17.8399999999999999
 11.9600000000000009 17.8399999999999999 19.8000000000000007
 11.9600000000000009 19.8000000000000007 17.8399999999999999
 15.8799999999999990 11.9600000000000009 17.8399999999999999
 13.9199999999999999 15.8799999999999990 15.8799999999999990
 15.8799999999999990 13.9199999999999999 15.8799999999999990
 15.8799999999999990 15.8799999999999990 13.9199999999999999
 13.9199999999999999 13.9199999999999999 17.8399999999999999
 13.9199999999999999 15.8799999999999990 19.8000000000000007
 15.8799999999999990 13.9199999999999999 19.8000000000000007
 15.8799999999999990 15.8799999999999990 17.8399999999999999
 15.8799999999999990 15.8799999999999990 21.7599999999999980
 15.8799999999999990 17.8399999999999999 11.9600000000000009
 13.9199999999999999 17.8399999999999999 13.9199999999999999
 13.9199999999999999 19.8000000000000007 15.8799999999999990
 15.8799999999999990 17.8399999999999999 15.8799999999999990
 15.8799999999999990 19.8000000000000007 13.9199999999999999
 13.9199999999999999 17.8399999999999999 17.8399999999999999
 13.9199999999999999 19.8000000000000007 19.8000000000000007
 15.8799999999999990 17.8399999999999999 19.8000000000000007
 15.8799999999999990 19.8000000000000007 17.8399999999999999
 13.9199999999999999 17.8399999999999999 21.7599999999999980
 15.8799999999999990 17.8399999999999999 23.7199999999999989
 15.8799999999999990 19.8000000000000007 21.7599999999999980
 15.8799999999999990 21.7599999999999980 15.8799999999999990
 13.9199999999999999 21.7599999999999980 17.8399999999999999
 15.8799999999999990 21.7599999999999980 19.8000000000000007
 15.8799999999999990 23.7199999999999989 17.8399999999999999
 17.8399999999999999 11.9600000000000009 15.8799999999999990
 17.8399999999999999 10.0000000000000000 17.8399999999999999
 17.8399999999999999 11.9600000000000009 19.8000000000000007
 19.8000000000000007 11.9600000000000009 17.8399999999999999
 17.8399999999999999 15.8799999999999990 11.9600000000000009
 17.8399999999999999 13.9199999999999999 13.9199999999999999
 17.8399999999999999 15.8799999999999990 15.8799999999999990
 19.8000000000000007 13.9199999999999999 15.8799999999999990
 19.8000000000000007 15.8799999999999990 13.9199999999999999
 17.8399999999999999 13.9199999999999999 17.8399999999999999
 17.8399999999999999 15.8799999999999990 19.8000000000000007
 19.8000000000000007 13.9199999999999999 19.8000000000000007
 19.8000000000000007 15.8799999999999990 17.8399999999999999
 17.8399999999999999 13.9199999999999999 21.7599999999999980
 17.8399999999999999 15.8799999999999990 23.7199999999999989
 19.8000000000000007 15.8799999999999990 21.7599999999999980
 17.8399999999999999 17.8399999999999999 10.0000000000000000
 17.8399999999999999 19.8000000000000007 11.9600000000000009
 19.8000000000000007 17.8399999999999999 11.9600000000000009
 17.8399999999999999 17.8399999999999999 13.9199999999999999
 17.8399999999999999 19.8000000000000007 15.8799999999999990
 19.8000000000000007 17.8399999999999999 15.8799999999999990
 19.8000000000000007 19.8000000000000007 13.9199999999999999
 17.8399999999999999 17.8399999999999999 17.8399999999999999
 17.8399999999999999 19.8000000000000007 19.8000000000000007
 19.8000000000000007 17.8399999999999999 19.8000000000000007
 19.8000000000000007 19.8000000000000007 17.8399999999999999
 17.8399999999999999 17.8399999999999999 21.7599999999999980
 17.8399999999999999 19.8000000000000007 23.7199999999999989
 19.8000000000000007 17.8399999999999999 23.7199999999999989
 19.8000000000000007 19.8000000000000007 21.7599999999999980
 17.8399999999999999 17.8399999999999999 25.6799999999999997
 17.8399999999999999 21.7599999999999980 13.9199999999999999
 17.8399999999999999 23.7199999999999989 15.8799999999999990
 19.8000000000000007 21.7599999999999980 15.8799999999999990
 17.8399999999999999 21.7599999999999980 17.8399999999999999
 17.8399999999999999 23.7199999999999989 19.8000000000000007
 19.8000000000000007 21.7599999999999980 19.8000000000000007
 19.8000000000000007 23.7199999999999989 17.8399999999999999
 17.8399999999999999 21.7599999999999980 21.7599999999999980
 17.8399999999999999 25.6799999999999997 17.8399999999999999
 21.7599999999999980 15.8799999999999990 15.8799999999999990
 21.7599999999999980 13.9199999999999999 17.8399999999999999
 21.7599999999999980 15.8799999999999990 19.8000000000000007
 23.7199999999999989 15.8799999999999990 17.8399999999999999
 21.7599999999999980 17.8399999999999999 13.9199999999999999
 21.7599999999999980 19.8000000000000007 15.8799999999999990
 23.7199999999999989 17.8399999999999999 15.8799999999999990
 21.7599999999999980 17.8399999999999999 17.8399999999999999
 21.7599999999999980 19.8000000000000007 19.8000000000000007
 23.7199999999999989 17.8399999999999999 19.8000000000000007
 23.7199999999999989 19.8000000000000007 17.8399999999999999
 21.7599999999999980 17.8399999999999999 21.7599999999999980
 21.7599999999999980 21.7599999999999980 17.8399999999999999
 25.6799999999999997 17.8399999999999999 17.8399999999999999
