Au 
 1.0000000000000000
    40.3999999999999986    0.0000000000000000    0.0000000000000000
     0.0000000000000000   40.3999999999999986    0.0000000000000000
     0.0000000000000000    0.0000000000000000   40.3999999999999986
 Au 
 314
Cartesian
  9.9999999999999982 16.1199999999999974 20.1999999999999993
 12.0399999999999991 14.0799999999999983 20.1999999999999993
 12.0399999999999991 16.1199999999999974 18.1599999999999966
 12.0399999999999991 16.1199999999999974 22.2399999999999984
  9.9999999999999982 20.1999999999999993 16.1199999999999974
 12.0399999999999991 18.1599999999999966 16.1199999999999974
 12.0399999999999991 20.1999999999999993 14.0799999999999983
  9.9999999999999982 18.1599999999999966 18.1599999999999966
  9.9999999999999982 20.1999999999999993 20.1999999999999993
 12.0399999999999991 18.1599999999999966 20.1999999999999993
 12.0399999999999991 20.1999999999999993 18.1599999999999966
  9.9999999999999982 18.1599999999999966 22.2399999999999984
  9.9999999999999982 20.1999999999999993 24.2799999999999976
 12.0399999999999991 18.1599999999999966 24.2799999999999976
 12.0399999999999991 20.1999999999999993 22.2399999999999984
 12.0399999999999991 20.1999999999999993 26.3199999999999967
 12.0399999999999991 22.2399999999999984 16.1199999999999974
  9.9999999999999982 22.2399999999999984 18.1599999999999966
  9.9999999999999982 24.2799999999999976 20.1999999999999993
 12.0399999999999991 22.2399999999999984 20.1999999999999993
 12.0399999999999991 24.2799999999999976 18.1599999999999966
  9.9999999999999982 22.2399999999999984 22.2399999999999984
 12.0399999999999991 22.2399999999999984 24.2799999999999976
 12.0399999999999991 24.2799999999999976 22.2399999999999984
 12.0399999999999991 26.3199999999999967 20.1999999999999993
 14.0799999999999983 12.0399999999999991 20.1999999999999993
 16.1199999999999974  9.9999999999999982 20.1999999999999993
 16.1199999999999974 12.0399999999999991 18.1599999999999966
 16.1199999999999974 12.0399999999999991 22.2399999999999984
 14.0799999999999983 16.1199999999999974 16.1199999999999974
 16.1199999999999974 14.0799999999999983 16.1199999999999974
 16.1199999999999974 16.1199999999999974 14.0799999999999983
 14.0799999999999983 14.0799999999999983 18.1599999999999966
 14.0799999999999983 16.1199999999999974 20.1999999999999993
 16.1199999999999974 14.0799999999999983 20.1999999999999993
 16.1199999999999974 16.1199999999999974 18.1599999999999966
 14.0799999999999983 14.0799999999999983 22.2399999999999984
 14.0799999999999983 16.1199999999999974 24.2799999999999976
 16.1199999999999974 14.0799999999999983 24.2799999999999976
 16.1199999999999974 16.1199999999999974 22.2399999999999984
 16.1199999999999974 16.1199999999999974 26.3199999999999967
 14.0799999999999983 20.1999999999999993 12.0399999999999991
 16.1199999999999974 18.1599999999999966 12.0399999999999991
 16.1199999999999974 20.1999999999999993  9.9999999999999982
 14.0799999999999983 18.1599999999999966 14.0799999999999983
 14.0799999999999983 20.1999999999999993 16.1199999999999974
 16.1199999999999974 18.1599999999999966 16.1199999999999974
 16.1199999999999974 20.1999999999999993 14.0799999999999983
 14.0799999999999983 18.1599999999999966 18.1599999999999966
 14.0799999999999983 20.1999999999999993 20.1999999999999993
 16.1199999999999974 18.1599999999999966 20.1999999999999993
 16.1199999999999974 20.1999999999999993 18.1599999999999966
 14.0799999999999983 18.1599999999999966 22.2399999999999984
 14.0799999999999983 20.1999999999999993 24.2799999999999976
 16.1199999999999974 18.1599999999999966 24.2799999999999976
 16.1199999999999974 20.1999999999999993 22.2399999999999984
 14.0799999999999983 18.1599999999999966 26.3199999999999967
 14.0799999999999983 20.1999999999999993 28.3599999999999959
 16.1199999999999974 18.1599999999999966 28.3599999999999959
 16.1199999999999974 20.1999999999999993 26.3199999999999967
 16.1199999999999974 20.1999999999999993 30.3999999999999986
 16.1199999999999974 22.2399999999999984 12.0399999999999991
 14.0799999999999983 22.2399999999999984 14.0799999999999983
 14.0799999999999983 24.2799999999999976 16.1199999999999974
 16.1199999999999974 22.2399999999999984 16.1199999999999974
 16.1199999999999974 24.2799999999999976 14.0799999999999983
 14.0799999999999983 22.2399999999999984 18.1599999999999966
 14.0799999999999983 24.2799999999999976 20.1999999999999993
 16.1199999999999974 22.2399999999999984 20.1999999999999993
 16.1199999999999974 24.2799999999999976 18.1599999999999966
 14.0799999999999983 22.2399999999999984 22.2399999999999984
 14.0799999999999983 24.2799999999999976 24.2799999999999976
 16.1199999999999974 22.2399999999999984 24.2799999999999976
 16.1199999999999974 24.2799999999999976 22.2399999999999984
 14.0799999999999983 22.2399999999999984 26.3199999999999967
 16.1199999999999974 22.2399999999999984 28.3599999999999959
 16.1199999999999974 24.2799999999999976 26.3199999999999967
 16.1199999999999974 26.3199999999999967 16.1199999999999974
 14.0799999999999983 26.3199999999999967 18.1599999999999966
 14.0799999999999983 28.3599999999999959 20.1999999999999993
 16.1199999999999974 26.3199999999999967 20.1999999999999993
 16.1199999999999974 28.3599999999999959 18.1599999999999966
 14.0799999999999983 26.3199999999999967 22.2399999999999984
 16.1199999999999974 26.3199999999999967 24.2799999999999976
 16.1199999999999974 28.3599999999999959 22.2399999999999984
 16.1199999999999974 30.3999999999999986 20.1999999999999993
 18.1599999999999966 12.0399999999999991 16.1199999999999974
 20.1999999999999993  9.9999999999999982 16.1199999999999974
 20.1999999999999993 12.0399999999999991 14.0799999999999983
 18.1599999999999966  9.9999999999999982 18.1599999999999966
 18.1599999999999966 12.0399999999999991 20.1999999999999993
 20.1999999999999993  9.9999999999999982 20.1999999999999993
 20.1999999999999993 12.0399999999999991 18.1599999999999966
 18.1599999999999966  9.9999999999999982 22.2399999999999984
 18.1599999999999966 12.0399999999999991 24.2799999999999976
 20.1999999999999993  9.9999999999999982 24.2799999999999976
 20.1999999999999993 12.0399999999999991 22.2399999999999984
 20.1999999999999993 12.0399999999999991 26.3199999999999967
 18.1599999999999966 16.1199999999999974 12.0399999999999991
 20.1999999999999993 14.0799999999999983 12.0399999999999991
 20.1999999999999993 16.1199999999999974  9.9999999999999982
 18.1599999999999966 14.0799999999999983 14.0799999999999983
 18.1599999999999966 16.1199999999999974 16.1199999999999974
 20.1999999999999993 14.0799999999999983 16.1199999999999974
 20.1999999999999993 16.1199999999999974 14.0799999999999983
 18.1599999999999966 14.0799999999999983 18.1599999999999966
 18.1599999999999966 16.1199999999999974 20.1999999999999993
 20.1999999999999993 14.0799999999999983 20.1999999999999993
 20.1999999999999993 16.1199999999999974 18.1599999999999966
 18.1599999999999966 14.0799999999999983 22.2399999999999984
 18.1599999999999966 16.1199999999999974 24.2799999999999976
 20.1999999999999993 14.0799999999999983 24.2799999999999976
 20.1999999999999993 16.1199999999999974 22.2399999999999984
 18.1599999999999966 14.0799999999999983 26.3199999999999967
 18.1599999999999966 16.1199999999999974 28.3599999999999959
 20.1999999999999993 14.0799999999999983 28.3599999999999959
 20.1999999999999993 16.1199999999999974 26.3199999999999967
 20.1999999999999993 16.1199999999999974 30.3999999999999986
 18.1599999999999966 18.1599999999999966  9.9999999999999982
 18.1599999999999966 20.1999999999999993 12.0399999999999991
 20.1999999999999993 18.1599999999999966 12.0399999999999991
 20.1999999999999993 20.1999999999999993  9.9999999999999982
 18.1599999999999966 18.1599999999999966 14.0799999999999983
 18.1599999999999966 20.1999999999999993 16.1199999999999974
 20.1999999999999993 18.1599999999999966 16.1199999999999974
 20.1999999999999993 20.1999999999999993 14.0799999999999983
 18.1599999999999966 18.1599999999999966 18.1599999999999966
 18.1599999999999966 20.1999999999999993 20.1999999999999993
 20.1999999999999993 18.1599999999999966 20.1999999999999993
 20.1999999999999993 20.1999999999999993 18.1599999999999966
 18.1599999999999966 18.1599999999999966 22.2399999999999984
 18.1599999999999966 20.1999999999999993 24.2799999999999976
 20.1999999999999993 18.1599999999999966 24.2799999999999976
 20.1999999999999993 20.1999999999999993 22.2399999999999984
 18.1599999999999966 18.1599999999999966 26.3199999999999967
 18.1599999999999966 20.1999999999999993 28.3599999999999959
 20.1999999999999993 18.1599999999999966 28.3599999999999959
 20.1999999999999993 20.1999999999999993 26.3199999999999967
 18.1599999999999966 18.1599999999999966 30.3999999999999986
 20.1999999999999993 20.1999999999999993 30.3999999999999986
 18.1599999999999966 22.2399999999999984  9.9999999999999982
 18.1599999999999966 24.2799999999999976 12.0399999999999991
 20.1999999999999993 22.2399999999999984 12.0399999999999991
 20.1999999999999993 24.2799999999999976  9.9999999999999982
 18.1599999999999966 22.2399999999999984 14.0799999999999983
 18.1599999999999966 24.2799999999999976 16.1199999999999974
 20.1999999999999993 22.2399999999999984 16.1199999999999974
 20.1999999999999993 24.2799999999999976 14.0799999999999983
 18.1599999999999966 22.2399999999999984 18.1599999999999966
 18.1599999999999966 24.2799999999999976 20.1999999999999993
 20.1999999999999993 22.2399999999999984 20.1999999999999993
 20.1999999999999993 24.2799999999999976 18.1599999999999966
 18.1599999999999966 22.2399999999999984 22.2399999999999984
 18.1599999999999966 24.2799999999999976 24.2799999999999976
 20.1999999999999993 22.2399999999999984 24.2799999999999976
 20.1999999999999993 24.2799999999999976 22.2399999999999984
 18.1599999999999966 22.2399999999999984 26.3199999999999967
 18.1599999999999966 24.2799999999999976 28.3599999999999959
 20.1999999999999993 22.2399999999999984 28.3599999999999959
 20.1999999999999993 24.2799999999999976 26.3199999999999967
 18.1599999999999966 22.2399999999999984 30.3999999999999986
 20.1999999999999993 24.2799999999999976 30.3999999999999986
 20.1999999999999993 26.3199999999999967 12.0399999999999991
 18.1599999999999966 26.3199999999999967 14.0799999999999983
 18.1599999999999966 28.3599999999999959 16.1199999999999974
 20.1999999999999993 26.3199999999999967 16.1199999999999974
 20.1999999999999993 28.3599999999999959 14.0799999999999983
 18.1599999999999966 26.3199999999999967 18.1599999999999966
 18.1599999999999966 28.3599999999999959 20.1999999999999993
 20.1999999999999993 26.3199999999999967 20.1999999999999993
 20.1999999999999993 28.3599999999999959 18.1599999999999966
 18.1599999999999966 26.3199999999999967 22.2399999999999984
 18.1599999999999966 28.3599999999999959 24.2799999999999976
 20.1999999999999993 26.3199999999999967 24.2799999999999976
 20.1999999999999993 28.3599999999999959 22.2399999999999984
 18.1599999999999966 26.3199999999999967 26.3199999999999967
 20.1999999999999993 26.3199999999999967 28.3599999999999959
 20.1999999999999993 28.3599999999999959 26.3199999999999967
 20.1999999999999993 30.3999999999999986 16.1199999999999974
 18.1599999999999966 30.3999999999999986 18.1599999999999966
 20.1999999999999993 30.3999999999999986 20.1999999999999993
 18.1599999999999966 30.3999999999999986 22.2399999999999984
 20.1999999999999993 30.3999999999999986 24.2799999999999976
 22.2399999999999984 12.0399999999999991 16.1199999999999974
 22.2399999999999984  9.9999999999999982 18.1599999999999966
 22.2399999999999984 12.0399999999999991 20.1999999999999993
 24.2799999999999976  9.9999999999999982 20.1999999999999993
 24.2799999999999976 12.0399999999999991 18.1599999999999966
 22.2399999999999984  9.9999999999999982 22.2399999999999984
 22.2399999999999984 12.0399999999999991 24.2799999999999976
 24.2799999999999976 12.0399999999999991 22.2399999999999984
 22.2399999999999984 16.1199999999999974 12.0399999999999991
 22.2399999999999984 14.0799999999999983 14.0799999999999983
 22.2399999999999984 16.1199999999999974 16.1199999999999974
 24.2799999999999976 14.0799999999999983 16.1199999999999974
 24.2799999999999976 16.1199999999999974 14.0799999999999983
 22.2399999999999984 14.0799999999999983 18.1599999999999966
 22.2399999999999984 16.1199999999999974 20.1999999999999993
 24.2799999999999976 14.0799999999999983 20.1999999999999993
 24.2799999999999976 16.1199999999999974 18.1599999999999966
 22.2399999999999984 14.0799999999999983 22.2399999999999984
 22.2399999999999984 16.1199999999999974 24.2799999999999976
 24.2799999999999976 14.0799999999999983 24.2799999999999976
 24.2799999999999976 16.1199999999999974 22.2399999999999984
 22.2399999999999984 14.0799999999999983 26.3199999999999967
 22.2399999999999984 16.1199999999999974 28.3599999999999959
 24.2799999999999976 16.1199999999999974 26.3199999999999967
 22.2399999999999984 18.1599999999999966  9.9999999999999982
 22.2399999999999984 20.1999999999999993 12.0399999999999991
 24.2799999999999976 18.1599999999999966 12.0399999999999991
 24.2799999999999976 20.1999999999999993  9.9999999999999982
 22.2399999999999984 18.1599999999999966 14.0799999999999983
 22.2399999999999984 20.1999999999999993 16.1199999999999974
 24.2799999999999976 18.1599999999999966 16.1199999999999974
 24.2799999999999976 20.1999999999999993 14.0799999999999983
 22.2399999999999984 18.1599999999999966 18.1599999999999966
 22.2399999999999984 20.1999999999999993 20.1999999999999993
 24.2799999999999976 18.1599999999999966 20.1999999999999993
 24.2799999999999976 20.1999999999999993 18.1599999999999966
 22.2399999999999984 18.1599999999999966 22.2399999999999984
 22.2399999999999984 20.1999999999999993 24.2799999999999976
 24.2799999999999976 18.1599999999999966 24.2799999999999976
 24.2799999999999976 20.1999999999999993 22.2399999999999984
 22.2399999999999984 18.1599999999999966 26.3199999999999967
 22.2399999999999984 20.1999999999999993 28.3599999999999959
 24.2799999999999976 18.1599999999999966 28.3599999999999959
 24.2799999999999976 20.1999999999999993 26.3199999999999967
 22.2399999999999984 18.1599999999999966 30.3999999999999986
 24.2799999999999976 20.1999999999999993 30.3999999999999986
 22.2399999999999984 22.2399999999999984  9.9999999999999982
 22.2399999999999984 24.2799999999999976 12.0399999999999991
 24.2799999999999976 22.2399999999999984 12.0399999999999991
 22.2399999999999984 22.2399999999999984 14.0799999999999983
 22.2399999999999984 24.2799999999999976 16.1199999999999974
 24.2799999999999976 22.2399999999999984 16.1199999999999974
 24.2799999999999976 24.2799999999999976 14.0799999999999983
 22.2399999999999984 22.2399999999999984 18.1599999999999966
 22.2399999999999984 24.2799999999999976 20.1999999999999993
 24.2799999999999976 22.2399999999999984 20.1999999999999993
 24.2799999999999976 24.2799999999999976 18.1599999999999966
 22.2399999999999984 22.2399999999999984 22.2399999999999984
 22.2399999999999984 24.2799999999999976 24.2799999999999976
 24.2799999999999976 22.2399999999999984 24.2799999999999976
 24.2799999999999976 24.2799999999999976 22.2399999999999984
 22.2399999999999984 22.2399999999999984 26.3199999999999967
 22.2399999999999984 24.2799999999999976 28.3599999999999959
 24.2799999999999976 22.2399999999999984 28.3599999999999959
 24.2799999999999976 24.2799999999999976 26.3199999999999967
 22.2399999999999984 22.2399999999999984 30.3999999999999986
 22.2399999999999984 26.3199999999999967 14.0799999999999983
 22.2399999999999984 28.3599999999999959 16.1199999999999974
 24.2799999999999976 26.3199999999999967 16.1199999999999974
 22.2399999999999984 26.3199999999999967 18.1599999999999966
 22.2399999999999984 28.3599999999999959 20.1999999999999993
 24.2799999999999976 26.3199999999999967 20.1999999999999993
 24.2799999999999976 28.3599999999999959 18.1599999999999966
 22.2399999999999984 26.3199999999999967 22.2399999999999984
 22.2399999999999984 28.3599999999999959 24.2799999999999976
 24.2799999999999976 26.3199999999999967 24.2799999999999976
 24.2799999999999976 28.3599999999999959 22.2399999999999984
 22.2399999999999984 26.3199999999999967 26.3199999999999967
 22.2399999999999984 30.3999999999999986 18.1599999999999966
 24.2799999999999976 30.3999999999999986 20.1999999999999993
 22.2399999999999984 30.3999999999999986 22.2399999999999984
 26.3199999999999967 12.0399999999999991 20.1999999999999993
 26.3199999999999967 16.1199999999999974 16.1199999999999974
 26.3199999999999967 14.0799999999999983 18.1599999999999966
 26.3199999999999967 16.1199999999999974 20.1999999999999993
 28.3599999999999959 14.0799999999999983 20.1999999999999993
 28.3599999999999959 16.1199999999999974 18.1599999999999966
 26.3199999999999967 14.0799999999999983 22.2399999999999984
 26.3199999999999967 16.1199999999999974 24.2799999999999976
 28.3599999999999959 16.1199999999999974 22.2399999999999984
 26.3199999999999967 20.1999999999999993 12.0399999999999991
 26.3199999999999967 18.1599999999999966 14.0799999999999983
 26.3199999999999967 20.1999999999999993 16.1199999999999974
 28.3599999999999959 18.1599999999999966 16.1199999999999974
 28.3599999999999959 20.1999999999999993 14.0799999999999983
 26.3199999999999967 18.1599999999999966 18.1599999999999966
 26.3199999999999967 20.1999999999999993 20.1999999999999993
 28.3599999999999959 18.1599999999999966 20.1999999999999993
 28.3599999999999959 20.1999999999999993 18.1599999999999966
 26.3199999999999967 18.1599999999999966 22.2399999999999984
 26.3199999999999967 20.1999999999999993 24.2799999999999976
 28.3599999999999959 18.1599999999999966 24.2799999999999976
 28.3599999999999959 20.1999999999999993 22.2399999999999984
 26.3199999999999967 18.1599999999999966 26.3199999999999967
 26.3199999999999967 20.1999999999999993 28.3599999999999959
 28.3599999999999959 20.1999999999999993 26.3199999999999967
 26.3199999999999967 22.2399999999999984 14.0799999999999983
 26.3199999999999967 24.2799999999999976 16.1199999999999974
 28.3599999999999959 22.2399999999999984 16.1199999999999974
 26.3199999999999967 22.2399999999999984 18.1599999999999966
 26.3199999999999967 24.2799999999999976 20.1999999999999993
 28.3599999999999959 22.2399999999999984 20.1999999999999993
 28.3599999999999959 24.2799999999999976 18.1599999999999966
 26.3199999999999967 22.2399999999999984 22.2399999999999984
 26.3199999999999967 24.2799999999999976 24.2799999999999976
 28.3599999999999959 22.2399999999999984 24.2799999999999976
 28.3599999999999959 24.2799999999999976 22.2399999999999984
 26.3199999999999967 22.2399999999999984 26.3199999999999967
 26.3199999999999967 26.3199999999999967 18.1599999999999966
 26.3199999999999967 28.3599999999999959 20.1999999999999993
 28.3599999999999959 26.3199999999999967 20.1999999999999993
 26.3199999999999967 26.3199999999999967 22.2399999999999984
 30.3999999999999986 16.1199999999999974 20.1999999999999993
 30.3999999999999986 20.1999999999999993 16.1199999999999974
 30.3999999999999986 18.1599999999999966 18.1599999999999966
 30.3999999999999986 20.1999999999999993 20.1999999999999993
 30.3999999999999986 18.1599999999999966 22.2399999999999984
 30.3999999999999986 20.1999999999999993 24.2799999999999976
 30.3999999999999986 22.2399999999999984 18.1599999999999966
 30.3999999999999986 24.2799999999999976 20.1999999999999993
 30.3999999999999986 22.2399999999999984 22.2399999999999984
