Pt 
 1.0000000000000000
    54.1179389185915340    0.0000000000000000    0.0000000000000000
     0.0000000000000000   52.4480881310865072    0.0000000000000000
     0.0000000000000000    0.0000000000000000   44.9467272402613958
 Pt 
 685
Cartesian
 27.0589694592957670 27.4784072758258233 10.0000000000000000
 27.0589694592957670 27.4784072758258233 12.7718585822512658
 27.0589694592957670 27.4784072758258233 15.5437171645025316
 27.0589694592957670 27.4784072758258233 18.3155757467538010
 27.0589694592957670 27.4784072758258233 21.0874343290050632
 27.0589694592957670 27.4784072758258233 23.8592929112563326
 27.0589694592957670 27.4784072758258233 26.6311514935075984
 27.0589694592957670 27.4784072758258233 29.4030100757588642
 27.0589694592957670 27.4784072758258233 32.1748686580101264
 27.0589694592957670 27.4784072758258233 34.9467272402613958
 29.3419805771384077 28.2202025547315998 11.3859292911256329
 29.3419805771384077 28.2202025547315998 14.1577878733768987
 29.3419805771384077 28.2202025547315998 16.9296464556281663
 29.3419805771384077 28.2202025547315998 19.7015050378794321
 29.3419805771384077 28.2202025547315998 22.4733636201306979
 29.3419805771384077 28.2202025547315998 25.2452222023819637
 29.3419805771384077 28.2202025547315998 28.0170807846332295
 29.3419805771384077 28.2202025547315998 30.7889393668844988
 29.3419805771384077 28.2202025547315998 33.5607979491357611
 27.0589694592957670 29.8789072237533375 11.3859292911256329
 27.0589694592957670 29.8789072237533375 14.1577878733768987
 27.0589694592957670 29.8789072237533375 16.9296464556281663
 27.0589694592957670 29.8789072237533375 19.7015050378794321
 27.0589694592957670 29.8789072237533375 22.4733636201306979
 27.0589694592957670 29.8789072237533375 25.2452222023819637
 27.0589694592957670 29.8789072237533375 28.0170807846332295
 27.0589694592957670 29.8789072237533375 30.7889393668844988
 27.0589694592957670 29.8789072237533375 33.5607979491357611
 24.7759583414531264 28.2202025547316033 11.3859292911256329
 24.7759583414531264 28.2202025547316033 14.1577878733768987
 24.7759583414531264 28.2202025547316033 16.9296464556281663
 24.7759583414531264 28.2202025547316033 19.7015050378794321
 24.7759583414531264 28.2202025547316033 22.4733636201306979
 24.7759583414531264 28.2202025547316033 25.2452222023819637
 24.7759583414531264 28.2202025547316033 28.0170807846332295
 24.7759583414531264 28.2202025547316033 30.7889393668844988
 24.7759583414531264 28.2202025547316033 33.5607979491357611
 25.6479909917751243 25.5363620229562898 11.3859292911256329
 25.6479909917751243 25.5363620229562898 14.1577878733768987
 25.6479909917751243 25.5363620229562898 16.9296464556281663
 25.6479909917751243 25.5363620229562898 19.7015050378794321
 25.6479909917751243 25.5363620229562898 22.4733636201306979
 25.6479909917751243 25.5363620229562898 25.2452222023819637
 25.6479909917751243 25.5363620229562898 28.0170807846332295
 25.6479909917751243 25.5363620229562898 30.7889393668844988
 25.6479909917751243 25.5363620229562898 33.5607979491357611
 28.4699479268164097 25.5363620229562862 11.3859292911256329
 28.4699479268164097 25.5363620229562862 14.1577878733768987
 28.4699479268164097 25.5363620229562862 16.9296464556281663
 28.4699479268164097 25.5363620229562862 19.7015050378794321
 28.4699479268164097 25.5363620229562862 22.4733636201306979
 28.4699479268164097 25.5363620229562862 25.2452222023819637
 28.4699479268164097 25.5363620229562862 28.0170807846332295
 28.4699479268164097 25.5363620229562862 30.7889393668844988
 28.4699479268164097 25.5363620229562862 33.5607979491357611
 31.6249916949810448 28.9619978336373798 12.7718585822512658
 31.6249916949810448 28.9619978336373798 15.5437171645025316
 31.6249916949810448 28.9619978336373798 18.3155757467537974
 31.6249916949810448 28.9619978336373798 21.0874343290050632
 31.6249916949810448 28.9619978336373798 23.8592929112563326
 31.6249916949810448 28.9619978336373798 26.6311514935075948
 31.6249916949810448 28.9619978336373798 29.4030100757588642
 31.6249916949810448 28.9619978336373798 32.1748686580101264
 29.3419805771384077 30.6207025026591140 12.7718585822512658
 29.3419805771384077 30.6207025026591140 15.5437171645025316
 29.3419805771384077 30.6207025026591140 18.3155757467537974
 29.3419805771384077 30.6207025026591140 21.0874343290050632
 29.3419805771384077 30.6207025026591140 23.8592929112563326
 29.3419805771384077 30.6207025026591140 26.6311514935075948
 29.3419805771384077 30.6207025026591140 29.4030100757588642
 29.3419805771384077 30.6207025026591140 32.1748686580101264
 27.0589694592957670 32.2794071716808517 12.7718585822512658
 27.0589694592957670 32.2794071716808517 15.5437171645025316
 27.0589694592957670 32.2794071716808517 18.3155757467537974
 27.0589694592957670 32.2794071716808517 21.0874343290050632
 27.0589694592957670 32.2794071716808517 23.8592929112563326
 27.0589694592957670 32.2794071716808517 26.6311514935075948
 27.0589694592957670 32.2794071716808517 29.4030100757588642
 27.0589694592957670 32.2794071716808517 32.1748686580101264
 24.7759583414531264 30.6207025026591140 12.7718585822512658
 24.7759583414531264 30.6207025026591140 15.5437171645025316
 24.7759583414531264 30.6207025026591140 18.3155757467537974
 24.7759583414531264 30.6207025026591140 21.0874343290050632
 24.7759583414531264 30.6207025026591140 23.8592929112563326
 24.7759583414531264 30.6207025026591140 26.6311514935075948
 24.7759583414531264 30.6207025026591140 29.4030100757588642
 24.7759583414531264 30.6207025026591140 32.1748686580101264
 22.4929472236104893 28.9619978336373798 12.7718585822512658
 22.4929472236104893 28.9619978336373798 15.5437171645025316
 22.4929472236104893 28.9619978336373798 18.3155757467537974
 22.4929472236104893 28.9619978336373798 21.0874343290050632
 22.4929472236104893 28.9619978336373798 23.8592929112563326
 22.4929472236104893 28.9619978336373798 26.6311514935075948
 22.4929472236104893 28.9619978336373798 29.4030100757588642
 22.4929472236104893 28.9619978336373798 32.1748686580101264
 23.3649798739324837 26.2781573018620662 12.7718585822512658
 23.3649798739324837 26.2781573018620662 15.5437171645025316
 23.3649798739324837 26.2781573018620662 18.3155757467537974
 23.3649798739324837 26.2781573018620662 21.0874343290050632
 23.3649798739324837 26.2781573018620662 23.8592929112563326
 23.3649798739324837 26.2781573018620662 26.6311514935075948
 23.3649798739324837 26.2781573018620662 29.4030100757588642
 23.3649798739324837 26.2781573018620662 32.1748686580101264
 24.2370125242544816 23.5943167700867527 12.7718585822512658
 24.2370125242544816 23.5943167700867527 15.5437171645025316
 24.2370125242544816 23.5943167700867527 18.3155757467537974
 24.2370125242544816 23.5943167700867527 21.0874343290050632
 24.2370125242544816 23.5943167700867527 23.8592929112563326
 24.2370125242544816 23.5943167700867527 26.6311514935075948
 24.2370125242544816 23.5943167700867527 29.4030100757588642
 24.2370125242544816 23.5943167700867527 32.1748686580101264
 27.0589694592957670 23.5943167700867527 12.7718585822512658
 27.0589694592957670 23.5943167700867527 15.5437171645025316
 27.0589694592957670 23.5943167700867527 18.3155757467537974
 27.0589694592957670 23.5943167700867527 21.0874343290050632
 27.0589694592957670 23.5943167700867527 23.8592929112563326
 27.0589694592957670 23.5943167700867527 26.6311514935075948
 27.0589694592957670 23.5943167700867527 29.4030100757588642
 27.0589694592957670 23.5943167700867527 32.1748686580101264
 29.8809263943370524 23.5943167700867527 12.7718585822512658
 29.8809263943370524 23.5943167700867527 15.5437171645025316
 29.8809263943370524 23.5943167700867527 18.3155757467537974
 29.8809263943370524 23.5943167700867527 21.0874343290050632
 29.8809263943370524 23.5943167700867527 23.8592929112563326
 29.8809263943370524 23.5943167700867527 26.6311514935075948
 29.8809263943370524 23.5943167700867527 29.4030100757588642
 29.8809263943370524 23.5943167700867527 32.1748686580101264
 30.7529590446590504 26.2781573018620662 12.7718585822512658
 30.7529590446590504 26.2781573018620662 15.5437171645025316
 30.7529590446590504 26.2781573018620662 18.3155757467537974
 30.7529590446590504 26.2781573018620662 21.0874343290050632
 30.7529590446590504 26.2781573018620662 23.8592929112563326
 30.7529590446590504 26.2781573018620662 26.6311514935075948
 30.7529590446590504 26.2781573018620662 29.4030100757588642
 30.7529590446590504 26.2781573018620662 32.1748686580101264
 33.9080028128236819 29.7037931125431562 14.1577878733768987
 33.9080028128236819 29.7037931125431562 16.9296464556281663
 33.9080028128236819 29.7037931125431562 19.7015050378794321
 33.9080028128236819 29.7037931125431562 22.4733636201306979
 33.9080028128236819 29.7037931125431562 25.2452222023819637
 33.9080028128236819 29.7037931125431562 28.0170807846332295
 33.9080028128236819 29.7037931125431562 30.7889393668844988
 31.6249916949810448 31.3624977815648940 14.1577878733768987
 31.6249916949810448 31.3624977815648940 16.9296464556281663
 31.6249916949810448 31.3624977815648940 19.7015050378794321
 31.6249916949810448 31.3624977815648940 22.4733636201306979
 31.6249916949810448 31.3624977815648940 25.2452222023819637
 31.6249916949810448 31.3624977815648940 28.0170807846332295
 31.6249916949810448 31.3624977815648940 30.7889393668844988
 29.3419805771384077 33.0212024505866282 14.1577878733768987
 29.3419805771384077 33.0212024505866282 16.9296464556281663
 29.3419805771384077 33.0212024505866282 19.7015050378794321
 29.3419805771384077 33.0212024505866282 22.4733636201306979
 29.3419805771384077 33.0212024505866282 25.2452222023819637
 29.3419805771384077 33.0212024505866282 28.0170807846332295
 29.3419805771384077 33.0212024505866282 30.7889393668844988
 27.0589694592957670 34.6799071196083659 14.1577878733768987
 27.0589694592957670 34.6799071196083659 16.9296464556281663
 27.0589694592957670 34.6799071196083659 19.7015050378794321
 27.0589694592957670 34.6799071196083659 22.4733636201306979
 27.0589694592957670 34.6799071196083659 25.2452222023819637
 27.0589694592957670 34.6799071196083659 28.0170807846332295
 27.0589694592957670 34.6799071196083659 30.7889393668844988
 24.7759583414531264 33.0212024505866282 14.1577878733768987
 24.7759583414531264 33.0212024505866282 16.9296464556281663
 24.7759583414531264 33.0212024505866282 19.7015050378794321
 24.7759583414531264 33.0212024505866282 22.4733636201306979
 24.7759583414531264 33.0212024505866282 25.2452222023819637
 24.7759583414531264 33.0212024505866282 28.0170807846332295
 24.7759583414531264 33.0212024505866282 30.7889393668844988
 22.4929472236104893 31.3624977815648940 14.1577878733768987
 22.4929472236104893 31.3624977815648940 16.9296464556281663
 22.4929472236104893 31.3624977815648940 19.7015050378794321
 22.4929472236104893 31.3624977815648940 22.4733636201306979
 22.4929472236104893 31.3624977815648940 25.2452222023819637
 22.4929472236104893 31.3624977815648940 28.0170807846332295
 22.4929472236104893 31.3624977815648940 30.7889393668844988
 20.2099361057678486 29.7037931125431598 14.1577878733768987
 20.2099361057678486 29.7037931125431598 16.9296464556281663
 20.2099361057678486 29.7037931125431598 19.7015050378794321
 20.2099361057678486 29.7037931125431598 22.4733636201306979
 20.2099361057678486 29.7037931125431598 25.2452222023819637
 20.2099361057678486 29.7037931125431598 28.0170807846332295
 20.2099361057678486 29.7037931125431598 30.7889393668844988
 21.0819687560898466 27.0199525807678462 14.1577878733768987
 21.0819687560898466 27.0199525807678462 16.9296464556281663
 21.0819687560898466 27.0199525807678462 19.7015050378794321
 21.0819687560898466 27.0199525807678462 22.4733636201306979
 21.0819687560898466 27.0199525807678462 25.2452222023819637
 21.0819687560898466 27.0199525807678462 28.0170807846332295
 21.0819687560898466 27.0199525807678462 30.7889393668844988
 21.9540014064118409 24.3361120489925327 14.1577878733768987
 21.9540014064118409 24.3361120489925327 16.9296464556281663
 21.9540014064118409 24.3361120489925327 19.7015050378794321
 21.9540014064118409 24.3361120489925327 22.4733636201306979
 21.9540014064118409 24.3361120489925327 25.2452222023819637
 21.9540014064118409 24.3361120489925327 28.0170807846332295
 21.9540014064118409 24.3361120489925327 30.7889393668844988
 22.8260340567338389 21.6522715172172191 14.1577878733768987
 22.8260340567338389 21.6522715172172191 16.9296464556281663
 22.8260340567338389 21.6522715172172191 19.7015050378794321
 22.8260340567338389 21.6522715172172191 22.4733636201306979
 22.8260340567338389 21.6522715172172191 25.2452222023819637
 22.8260340567338389 21.6522715172172191 28.0170807846332295
 22.8260340567338389 21.6522715172172191 30.7889393668844988
 25.6479909917751243 21.6522715172172155 14.1577878733768987
 25.6479909917751243 21.6522715172172155 16.9296464556281663
 25.6479909917751243 21.6522715172172155 19.7015050378794321
 25.6479909917751243 21.6522715172172155 22.4733636201306979
 25.6479909917751243 21.6522715172172155 25.2452222023819637
 25.6479909917751243 21.6522715172172155 28.0170807846332295
 25.6479909917751243 21.6522715172172155 30.7889393668844988
 28.4699479268164097 21.6522715172172155 14.1577878733768987
 28.4699479268164097 21.6522715172172155 16.9296464556281663
 28.4699479268164097 21.6522715172172155 19.7015050378794321
 28.4699479268164097 21.6522715172172155 22.4733636201306979
 28.4699479268164097 21.6522715172172155 25.2452222023819637
 28.4699479268164097 21.6522715172172155 28.0170807846332295
 28.4699479268164097 21.6522715172172155 30.7889393668844988
 31.2919048618576952 21.6522715172172155 14.1577878733768987
 31.2919048618576952 21.6522715172172155 16.9296464556281663
 31.2919048618576952 21.6522715172172155 19.7015050378794321
 31.2919048618576952 21.6522715172172155 22.4733636201306979
 31.2919048618576952 21.6522715172172155 25.2452222023819637
 31.2919048618576952 21.6522715172172155 28.0170807846332295
 31.2919048618576952 21.6522715172172155 30.7889393668844988
 32.1639375121796931 24.3361120489925291 14.1577878733768987
 32.1639375121796931 24.3361120489925291 16.9296464556281663
 32.1639375121796931 24.3361120489925291 19.7015050378794321
 32.1639375121796931 24.3361120489925291 22.4733636201306979
 32.1639375121796931 24.3361120489925291 25.2452222023819637
 32.1639375121796931 24.3361120489925291 28.0170807846332295
 32.1639375121796931 24.3361120489925291 30.7889393668844988
 33.0359701625016839 27.0199525807678427 14.1577878733768987
 33.0359701625016839 27.0199525807678427 16.9296464556281663
 33.0359701625016839 27.0199525807678427 19.7015050378794321
 33.0359701625016839 27.0199525807678427 22.4733636201306979
 33.0359701625016839 27.0199525807678427 25.2452222023819637
 33.0359701625016839 27.0199525807678427 28.0170807846332295
 33.0359701625016839 27.0199525807678427 30.7889393668844988
 36.1910139306663226 30.4455883914489327 15.5437171645025316
 36.1910139306663226 30.4455883914489327 18.3155757467538010
 36.1910139306663226 30.4455883914489327 21.0874343290050632
 36.1910139306663226 30.4455883914489327 23.8592929112563326
 36.1910139306663226 30.4455883914489327 26.6311514935075984
 36.1910139306663226 30.4455883914489327 29.4030100757588642
 33.9080028128236819 32.1042930604706669 15.5437171645025316
 33.9080028128236819 32.1042930604706669 18.3155757467538010
 33.9080028128236819 32.1042930604706669 21.0874343290050632
 33.9080028128236819 32.1042930604706669 23.8592929112563326
 33.9080028128236819 32.1042930604706669 26.6311514935075984
 33.9080028128236819 32.1042930604706669 29.4030100757588642
 31.6249916949810448 33.7629977294924046 15.5437171645025316
 31.6249916949810448 33.7629977294924046 18.3155757467538010
 31.6249916949810448 33.7629977294924046 21.0874343290050632
 31.6249916949810448 33.7629977294924046 23.8592929112563326
 31.6249916949810448 33.7629977294924046 26.6311514935075984
 31.6249916949810448 33.7629977294924046 29.4030100757588642
 29.3419805771384077 35.4217023985141424 15.5437171645025316
 29.3419805771384077 35.4217023985141424 18.3155757467538010
 29.3419805771384077 35.4217023985141424 21.0874343290050632
 29.3419805771384077 35.4217023985141424 23.8592929112563326
 29.3419805771384077 35.4217023985141424 26.6311514935075984
 29.3419805771384077 35.4217023985141424 29.4030100757588642
 27.0589694592957670 37.0804070675358801 15.5437171645025316
 27.0589694592957670 37.0804070675358801 18.3155757467538010
 27.0589694592957670 37.0804070675358801 21.0874343290050632
 27.0589694592957670 37.0804070675358801 23.8592929112563326
 27.0589694592957670 37.0804070675358801 26.6311514935075984
 27.0589694592957670 37.0804070675358801 29.4030100757588642
 24.7759583414531264 35.4217023985141424 15.5437171645025316
 24.7759583414531264 35.4217023985141424 18.3155757467538010
 24.7759583414531264 35.4217023985141424 21.0874343290050632
 24.7759583414531264 35.4217023985141424 23.8592929112563326
 24.7759583414531264 35.4217023985141424 26.6311514935075984
 24.7759583414531264 35.4217023985141424 29.4030100757588642
 22.4929472236104893 33.7629977294924117 15.5437171645025316
 22.4929472236104893 33.7629977294924117 18.3155757467538010
 22.4929472236104893 33.7629977294924117 21.0874343290050632
 22.4929472236104893 33.7629977294924117 23.8592929112563326
 22.4929472236104893 33.7629977294924117 26.6311514935075984
 22.4929472236104893 33.7629977294924117 29.4030100757588642
 20.2099361057678486 32.1042930604706740 15.5437171645025316
 20.2099361057678486 32.1042930604706740 18.3155757467538010
 20.2099361057678486 32.1042930604706740 21.0874343290050632
 20.2099361057678486 32.1042930604706740 23.8592929112563326
 20.2099361057678486 32.1042930604706740 26.6311514935075984
 20.2099361057678486 32.1042930604706740 29.4030100757588642
 17.9269249879252115 30.4455883914489362 15.5437171645025316
 17.9269249879252115 30.4455883914489362 18.3155757467538010
 17.9269249879252115 30.4455883914489362 21.0874343290050632
 17.9269249879252115 30.4455883914489362 23.8592929112563326
 17.9269249879252115 30.4455883914489362 26.6311514935075984
 17.9269249879252115 30.4455883914489362 29.4030100757588642
 18.7989576382472059 27.7617478596736227 15.5437171645025316
 18.7989576382472059 27.7617478596736227 18.3155757467538010
 18.7989576382472059 27.7617478596736227 21.0874343290050632
 18.7989576382472059 27.7617478596736227 23.8592929112563326
 18.7989576382472059 27.7617478596736227 26.6311514935075984
 18.7989576382472059 27.7617478596736227 29.4030100757588642
 19.6709902885692003 25.0779073278983091 15.5437171645025316
 19.6709902885692003 25.0779073278983091 18.3155757467538010
 19.6709902885692003 25.0779073278983091 21.0874343290050632
 19.6709902885692003 25.0779073278983091 23.8592929112563326
 19.6709902885692003 25.0779073278983091 26.6311514935075984
 19.6709902885692003 25.0779073278983091 29.4030100757588642
 20.5430229388911982 22.3940667961229956 15.5437171645025316
 20.5430229388911982 22.3940667961229956 18.3155757467538010
 20.5430229388911982 22.3940667961229956 21.0874343290050632
 20.5430229388911982 22.3940667961229956 23.8592929112563326
 20.5430229388911982 22.3940667961229956 26.6311514935075984
 20.5430229388911982 22.3940667961229956 29.4030100757588642
 21.4150555892131962 19.7102262643476820 15.5437171645025316
 21.4150555892131962 19.7102262643476820 18.3155757467538010
 21.4150555892131962 19.7102262643476820 21.0874343290050632
 21.4150555892131962 19.7102262643476820 23.8592929112563326
 21.4150555892131962 19.7102262643476820 26.6311514935075984
 21.4150555892131962 19.7102262643476820 29.4030100757588642
 24.2370125242544816 19.7102262643476820 15.5437171645025316
 24.2370125242544816 19.7102262643476820 18.3155757467538010
 24.2370125242544816 19.7102262643476820 21.0874343290050632
 24.2370125242544816 19.7102262643476820 23.8592929112563326
 24.2370125242544816 19.7102262643476820 26.6311514935075984
 24.2370125242544816 19.7102262643476820 29.4030100757588642
 27.0589694592957670 19.7102262643476820 15.5437171645025316
 27.0589694592957670 19.7102262643476820 18.3155757467538010
 27.0589694592957670 19.7102262643476820 21.0874343290050632
 27.0589694592957670 19.7102262643476820 23.8592929112563326
 27.0589694592957670 19.7102262643476820 26.6311514935075984
 27.0589694592957670 19.7102262643476820 29.4030100757588642
 29.8809263943370524 19.7102262643476820 15.5437171645025316
 29.8809263943370524 19.7102262643476820 18.3155757467538010
 29.8809263943370524 19.7102262643476820 21.0874343290050632
 29.8809263943370524 19.7102262643476820 23.8592929112563326
 29.8809263943370524 19.7102262643476820 26.6311514935075984
 29.8809263943370524 19.7102262643476820 29.4030100757588642
 32.7028833293783379 19.7102262643476820 15.5437171645025316
 32.7028833293783379 19.7102262643476820 18.3155757467538010
 32.7028833293783379 19.7102262643476820 21.0874343290050632
 32.7028833293783379 19.7102262643476820 23.8592929112563326
 32.7028833293783379 19.7102262643476820 26.6311514935075984
 32.7028833293783379 19.7102262643476820 29.4030100757588642
 33.5749159797003358 22.3940667961229920 15.5437171645025316
 33.5749159797003358 22.3940667961229920 18.3155757467538010
 33.5749159797003358 22.3940667961229920 21.0874343290050632
 33.5749159797003358 22.3940667961229920 23.8592929112563326
 33.5749159797003358 22.3940667961229920 26.6311514935075984
 33.5749159797003358 22.3940667961229920 29.4030100757588642
 34.4469486300223338 25.0779073278983091 15.5437171645025316
 34.4469486300223338 25.0779073278983091 18.3155757467538010
 34.4469486300223338 25.0779073278983091 21.0874343290050632
 34.4469486300223338 25.0779073278983091 23.8592929112563326
 34.4469486300223338 25.0779073278983091 26.6311514935075984
 34.4469486300223338 25.0779073278983091 29.4030100757588642
 35.3189812803443317 27.7617478596736191 15.5437171645025316
 35.3189812803443317 27.7617478596736191 18.3155757467538010
 35.3189812803443317 27.7617478596736191 21.0874343290050632
 35.3189812803443317 27.7617478596736191 23.8592929112563326
 35.3189812803443317 27.7617478596736191 26.6311514935075984
 35.3189812803443317 27.7617478596736191 29.4030100757588642
 38.4740250485089632 31.1873836703547127 16.9296464556281663
 38.4740250485089632 31.1873836703547127 19.7015050378794321
 38.4740250485089632 31.1873836703547127 22.4733636201306979
 38.4740250485089632 31.1873836703547127 25.2452222023819637
 38.4740250485089632 31.1873836703547127 28.0170807846332295
 36.1910139306663226 32.8460883393764504 16.9296464556281663
 36.1910139306663226 32.8460883393764504 19.7015050378794321
 36.1910139306663226 32.8460883393764504 22.4733636201306979
 36.1910139306663226 32.8460883393764504 25.2452222023819637
 36.1910139306663226 32.8460883393764504 28.0170807846332295
 33.9080028128236819 34.5047930083981811 16.9296464556281663
 33.9080028128236819 34.5047930083981811 19.7015050378794321
 33.9080028128236819 34.5047930083981811 22.4733636201306979
 33.9080028128236819 34.5047930083981811 25.2452222023819637
 33.9080028128236819 34.5047930083981811 28.0170807846332295
 31.6249916949810448 36.1634976774199188 16.9296464556281663
 31.6249916949810448 36.1634976774199188 19.7015050378794321
 31.6249916949810448 36.1634976774199188 22.4733636201306979
 31.6249916949810448 36.1634976774199188 25.2452222023819637
 31.6249916949810448 36.1634976774199188 28.0170807846332295
 29.3419805771384077 37.8222023464416566 16.9296464556281663
 29.3419805771384077 37.8222023464416566 19.7015050378794321
 29.3419805771384077 37.8222023464416566 22.4733636201306979
 29.3419805771384077 37.8222023464416566 25.2452222023819637
 29.3419805771384077 37.8222023464416566 28.0170807846332295
 27.0589694592957670 39.4809070154633943 16.9296464556281663
 27.0589694592957670 39.4809070154633943 19.7015050378794321
 27.0589694592957670 39.4809070154633943 22.4733636201306979
 27.0589694592957670 39.4809070154633943 25.2452222023819637
 27.0589694592957670 39.4809070154633943 28.0170807846332295
 24.7759583414531264 37.8222023464416566 16.9296464556281663
 24.7759583414531264 37.8222023464416566 19.7015050378794321
 24.7759583414531264 37.8222023464416566 22.4733636201306979
 24.7759583414531264 37.8222023464416566 25.2452222023819637
 24.7759583414531264 37.8222023464416566 28.0170807846332295
 22.4929472236104893 36.1634976774199259 16.9296464556281663
 22.4929472236104893 36.1634976774199259 19.7015050378794321
 22.4929472236104893 36.1634976774199259 22.4733636201306979
 22.4929472236104893 36.1634976774199259 25.2452222023819637
 22.4929472236104893 36.1634976774199259 28.0170807846332295
 20.2099361057678486 34.5047930083981882 16.9296464556281663
 20.2099361057678486 34.5047930083981882 19.7015050378794321
 20.2099361057678486 34.5047930083981882 22.4733636201306979
 20.2099361057678486 34.5047930083981882 25.2452222023819637
 20.2099361057678486 34.5047930083981882 28.0170807846332295
 17.9269249879252115 32.8460883393764504 16.9296464556281663
 17.9269249879252115 32.8460883393764504 19.7015050378794321
 17.9269249879252115 32.8460883393764504 22.4733636201306979
 17.9269249879252115 32.8460883393764504 25.2452222023819637
 17.9269249879252115 32.8460883393764504 28.0170807846332295
 15.6439138700825708 31.1873836703547163 16.9296464556281663
 15.6439138700825708 31.1873836703547163 19.7015050378794321
 15.6439138700825708 31.1873836703547163 22.4733636201306979
 15.6439138700825708 31.1873836703547163 25.2452222023819637
 15.6439138700825708 31.1873836703547163 28.0170807846332295
 16.5159465204045688 28.5035431385794027 16.9296464556281663
 16.5159465204045688 28.5035431385794027 19.7015050378794321
 16.5159465204045688 28.5035431385794027 22.4733636201306979
 16.5159465204045688 28.5035431385794027 25.2452222023819637
 16.5159465204045688 28.5035431385794027 28.0170807846332295
 17.3879791707265632 25.8197026068040891 16.9296464556281663
 17.3879791707265632 25.8197026068040891 19.7015050378794321
 17.3879791707265632 25.8197026068040891 22.4733636201306979
 17.3879791707265632 25.8197026068040891 25.2452222023819637
 17.3879791707265632 25.8197026068040891 28.0170807846332295
 18.2600118210485576 23.1358620750287756 16.9296464556281663
 18.2600118210485576 23.1358620750287756 19.7015050378794321
 18.2600118210485576 23.1358620750287756 22.4733636201306979
 18.2600118210485576 23.1358620750287756 25.2452222023819637
 18.2600118210485576 23.1358620750287756 28.0170807846332295
 19.1320444713705555 20.4520215432534620 16.9296464556281663
 19.1320444713705555 20.4520215432534620 19.7015050378794321
 19.1320444713705555 20.4520215432534620 22.4733636201306979
 19.1320444713705555 20.4520215432534620 25.2452222023819637
 19.1320444713705555 20.4520215432534620 28.0170807846332295
 20.0040771216925535 17.7681810114781484 16.9296464556281663
 20.0040771216925535 17.7681810114781484 19.7015050378794321
 20.0040771216925535 17.7681810114781484 22.4733636201306979
 20.0040771216925535 17.7681810114781484 25.2452222023819637
 20.0040771216925535 17.7681810114781484 28.0170807846332295
 22.8260340567338389 17.7681810114781484 16.9296464556281663
 22.8260340567338389 17.7681810114781484 19.7015050378794321
 22.8260340567338389 17.7681810114781484 22.4733636201306979
 22.8260340567338389 17.7681810114781484 25.2452222023819637
 22.8260340567338389 17.7681810114781484 28.0170807846332295
 25.6479909917751208 17.7681810114781484 16.9296464556281663
 25.6479909917751208 17.7681810114781484 19.7015050378794321
 25.6479909917751208 17.7681810114781484 22.4733636201306979
 25.6479909917751208 17.7681810114781484 25.2452222023819637
 25.6479909917751208 17.7681810114781484 28.0170807846332295
 28.4699479268164062 17.7681810114781449 16.9296464556281663
 28.4699479268164062 17.7681810114781449 19.7015050378794321
 28.4699479268164062 17.7681810114781449 22.4733636201306979
 28.4699479268164062 17.7681810114781449 25.2452222023819637
 28.4699479268164062 17.7681810114781449 28.0170807846332295
 31.2919048618576916 17.7681810114781449 16.9296464556281663
 31.2919048618576916 17.7681810114781449 19.7015050378794321
 31.2919048618576916 17.7681810114781449 22.4733636201306979
 31.2919048618576916 17.7681810114781449 25.2452222023819637
 31.2919048618576916 17.7681810114781449 28.0170807846332295
 34.1138617968989735 17.7681810114781449 16.9296464556281663
 34.1138617968989735 17.7681810114781449 19.7015050378794321
 34.1138617968989735 17.7681810114781449 22.4733636201306979
 34.1138617968989735 17.7681810114781449 25.2452222023819637
 34.1138617968989735 17.7681810114781449 28.0170807846332295
 34.9858944472209714 20.4520215432534584 16.9296464556281663
 34.9858944472209714 20.4520215432534584 19.7015050378794321
 34.9858944472209714 20.4520215432534584 22.4733636201306979
 34.9858944472209714 20.4520215432534584 25.2452222023819637
 34.9858944472209714 20.4520215432534584 28.0170807846332295
 35.8579270975429694 23.1358620750287720 16.9296464556281663
 35.8579270975429694 23.1358620750287720 19.7015050378794321
 35.8579270975429694 23.1358620750287720 22.4733636201306979
 35.8579270975429694 23.1358620750287720 25.2452222023819637
 35.8579270975429694 23.1358620750287720 28.0170807846332295
 36.7299597478649673 25.8197026068040856 16.9296464556281663
 36.7299597478649673 25.8197026068040856 19.7015050378794321
 36.7299597478649673 25.8197026068040856 22.4733636201306979
 36.7299597478649673 25.8197026068040856 25.2452222023819637
 36.7299597478649673 25.8197026068040856 28.0170807846332295
 37.6019923981869653 28.5035431385793991 16.9296464556281663
 37.6019923981869653 28.5035431385793991 19.7015050378794321
 37.6019923981869653 28.5035431385793991 22.4733636201306979
 37.6019923981869653 28.5035431385793991 25.2452222023819637
 37.6019923981869653 28.5035431385793991 28.0170807846332295
 38.4740250485089632 33.5878836182822269 18.3155757467537974
 38.4740250485089632 33.5878836182822269 21.0874343290050632