Au 
 1.0000000000000000
    37.1943103213663946    0.0000000000000000    0.0000000000000000
     0.0000000000000000   36.3527608743365249    0.0000000000000000
     0.0000000000000000    0.0000000000000000   43.0799653379289111
 Au 
 284
Cartesian
 18.5971551606832008 18.0852496241915368 10.0000000000000000
 18.5971551606832008 18.0852496241915368 12.8849956672411139
 18.5971551606832008 18.0852496241915368 15.7699913344822278
 18.5971551606832008 18.0852496241915368 18.6549870017233417
 18.5971551606832008 18.0852496241915368 21.5399826689644556
 18.5971551606832008 18.0852496241915368 24.4249783362055695
 18.5971551606832008 18.0852496241915368 27.3099740034466834
 18.5971551606832008 18.0852496241915368 30.1949696706877972
 18.5971551606832008 18.0852496241915368 33.0799653379289111
 20.9733504057847249 18.8573222614199985 11.4424978336205569
 20.9733504057847249 18.8573222614199985 14.3274935008616708
 20.9733504057847249 18.8573222614199985 17.2124891681027847
 20.9733504057847249 18.8573222614199985 20.0974848353438986
 20.9733504057847249 18.8573222614199985 22.9824805025850125
 20.9733504057847249 18.8573222614199985 25.8674761698261264
 20.9733504057847249 18.8573222614199985 28.7524718370672403
 20.9733504057847249 18.8573222614199985 31.6374675043083542
 18.5971551606832008 20.5837291618303766 11.4424978336205569
 18.5971551606832008 20.5837291618303766 14.3274935008616708
 18.5971551606832008 20.5837291618303766 17.2124891681027847
 18.5971551606832008 20.5837291618303766 20.0974848353438986
 18.5971551606832008 20.5837291618303766 22.9824805025850125
 18.5971551606832008 20.5837291618303766 25.8674761698261264
 18.5971551606832008 20.5837291618303766 28.7524718370672403
 18.5971551606832008 20.5837291618303766 31.6374675043083542
 16.2209599155816768 18.8573222614199985 11.4424978336205569
 16.2209599155816768 18.8573222614199985 14.3274935008616708
 16.2209599155816768 18.8573222614199985 17.2124891681027847
 16.2209599155816768 18.8573222614199985 20.0974848353438986
 16.2209599155816768 18.8573222614199985 22.9824805025850125
 16.2209599155816768 18.8573222614199985 25.8674761698261264
 16.2209599155816768 18.8573222614199985 28.7524718370672403
 16.2209599155816768 18.8573222614199985 31.6374675043083542
 17.1285857353045721 16.0639372181436535 11.4424978336205569
 17.1285857353045721 16.0639372181436535 14.3274935008616708
 17.1285857353045721 16.0639372181436535 17.2124891681027847
 17.1285857353045721 16.0639372181436535 20.0974848353438986
 17.1285857353045721 16.0639372181436535 22.9824805025850125
 17.1285857353045721 16.0639372181436535 25.8674761698261264
 17.1285857353045721 16.0639372181436535 28.7524718370672403
 17.1285857353045721 16.0639372181436535 31.6374675043083542
 20.0657245860618296 16.0639372181436535 11.4424978336205569
 20.0657245860618296 16.0639372181436535 14.3274935008616708
 20.0657245860618296 16.0639372181436535 17.2124891681027847
 20.0657245860618296 16.0639372181436535 20.0974848353438986
 20.0657245860618296 16.0639372181436535 22.9824805025850125
 20.0657245860618296 16.0639372181436535 25.8674761698261264
 20.0657245860618296 16.0639372181436535 28.7524718370672403
 20.0657245860618296 16.0639372181436535 31.6374675043083542
 23.3495456508862453 19.6293948986484637 12.8849956672411139
 23.3495456508862453 19.6293948986484637 15.7699913344822278
 23.3495456508862453 19.6293948986484637 18.6549870017233417
 23.3495456508862453 19.6293948986484637 21.5399826689644556
 23.3495456508862453 19.6293948986484637 24.4249783362055695
 23.3495456508862453 19.6293948986484637 27.3099740034466834
 23.3495456508862453 19.6293948986484637 30.1949696706877972
 20.9733504057847249 21.3558017990588418 12.8849956672411139
 20.9733504057847249 21.3558017990588418 15.7699913344822278
 20.9733504057847249 21.3558017990588418 18.6549870017233417
 20.9733504057847249 21.3558017990588418 21.5399826689644556
 20.9733504057847249 21.3558017990588418 24.4249783362055695
 20.9733504057847249 21.3558017990588418 27.3099740034466834
 20.9733504057847249 21.3558017990588418 30.1949696706877972
 18.5971551606832008 23.0822086994692199 12.8849956672411139
 18.5971551606832008 23.0822086994692199 15.7699913344822278
 18.5971551606832008 23.0822086994692199 18.6549870017233417
 18.5971551606832008 23.0822086994692199 21.5399826689644556
 18.5971551606832008 23.0822086994692199 24.4249783362055695
 18.5971551606832008 23.0822086994692199 27.3099740034466834
 18.5971551606832008 23.0822086994692199 30.1949696706877972
 16.2209599155816768 21.3558017990588418 12.8849956672411139
 16.2209599155816768 21.3558017990588418 15.7699913344822278
 16.2209599155816768 21.3558017990588418 18.6549870017233417
 16.2209599155816768 21.3558017990588418 21.5399826689644556
 16.2209599155816768 21.3558017990588418 24.4249783362055695
 16.2209599155816768 21.3558017990588418 27.3099740034466834
 16.2209599155816768 21.3558017990588418 30.1949696706877972
 13.8447646704801564 19.6293948986484637 12.8849956672411139
 13.8447646704801564 19.6293948986484637 15.7699913344822278
 13.8447646704801564 19.6293948986484637 18.6549870017233417
 13.8447646704801564 19.6293948986484637 21.5399826689644556
 13.8447646704801564 19.6293948986484637 24.4249783362055695
 13.8447646704801564 19.6293948986484637 27.3099740034466834
 13.8447646704801564 19.6293948986484637 30.1949696706877972
 14.7523904902030498 16.8360098553721151 12.8849956672411139
 14.7523904902030498 16.8360098553721151 15.7699913344822278
 14.7523904902030498 16.8360098553721151 18.6549870017233417
 14.7523904902030498 16.8360098553721151 21.5399826689644556
 14.7523904902030498 16.8360098553721151 24.4249783362055695
 14.7523904902030498 16.8360098553721151 27.3099740034466834
 14.7523904902030498 16.8360098553721151 30.1949696706877972
 15.6600163099259433 14.0426248120957702 12.8849956672411139
 15.6600163099259433 14.0426248120957702 15.7699913344822278
 15.6600163099259433 14.0426248120957702 18.6549870017233417
 15.6600163099259433 14.0426248120957702 21.5399826689644556
 15.6600163099259433 14.0426248120957702 24.4249783362055695
 15.6600163099259433 14.0426248120957702 27.3099740034466834
 15.6600163099259433 14.0426248120957702 30.1949696706877972
 18.5971551606832008 14.0426248120957684 12.8849956672411139
 18.5971551606832008 14.0426248120957684 15.7699913344822278
 18.5971551606832008 14.0426248120957684 18.6549870017233417
 18.5971551606832008 14.0426248120957684 21.5399826689644556
 18.5971551606832008 14.0426248120957684 24.4249783362055695
 18.5971551606832008 14.0426248120957684 27.3099740034466834
 18.5971551606832008 14.0426248120957684 30.1949696706877972
 21.5342940114404549 14.0426248120957684 12.8849956672411139
 21.5342940114404549 14.0426248120957684 15.7699913344822278
 21.5342940114404549 14.0426248120957684 18.6549870017233417
 21.5342940114404549 14.0426248120957684 21.5399826689644556
 21.5342940114404549 14.0426248120957684 24.4249783362055695
 21.5342940114404549 14.0426248120957684 27.3099740034466834
 21.5342940114404549 14.0426248120957684 30.1949696706877972
 22.4419198311633501 16.8360098553721151 12.8849956672411139
 22.4419198311633501 16.8360098553721151 15.7699913344822278
 22.4419198311633501 16.8360098553721151 18.6549870017233417
 22.4419198311633501 16.8360098553721151 21.5399826689644556
 22.4419198311633501 16.8360098553721151 24.4249783362055695
 22.4419198311633501 16.8360098553721151 27.3099740034466834
 22.4419198311633501 16.8360098553721151 30.1949696706877972
 25.7257408959877694 20.4014675358769253 14.3274935008616708
 25.7257408959877694 20.4014675358769253 17.2124891681027847
 25.7257408959877694 20.4014675358769253 20.0974848353438986
 25.7257408959877694 20.4014675358769253 22.9824805025850125
 25.7257408959877694 20.4014675358769253 25.8674761698261264
 25.7257408959877694 20.4014675358769253 28.7524718370672403
 23.3495456508862453 22.1278744362873034 14.3274935008616708
 23.3495456508862453 22.1278744362873034 17.2124891681027847
 23.3495456508862453 22.1278744362873034 20.0974848353438986
 23.3495456508862453 22.1278744362873034 22.9824805025850125
 23.3495456508862453 22.1278744362873034 25.8674761698261264
 23.3495456508862453 22.1278744362873034 28.7524718370672403
 20.9733504057847249 23.8542813366976816 14.3274935008616708
 20.9733504057847249 23.8542813366976816 17.2124891681027847
 20.9733504057847249 23.8542813366976816 20.0974848353438986
 20.9733504057847249 23.8542813366976816 22.9824805025850125
 20.9733504057847249 23.8542813366976816 25.8674761698261264
 20.9733504057847249 23.8542813366976816 28.7524718370672403
 18.5971551606832008 25.5806882371080633 14.3274935008616708
 18.5971551606832008 25.5806882371080633 17.2124891681027847
 18.5971551606832008 25.5806882371080633 20.0974848353438986
 18.5971551606832008 25.5806882371080633 22.9824805025850125
 18.5971551606832008 25.5806882371080633 25.8674761698261264
 18.5971551606832008 25.5806882371080633 28.7524718370672403
 16.2209599155816804 23.8542813366976816 14.3274935008616708
 16.2209599155816804 23.8542813366976816 17.2124891681027847
 16.2209599155816804 23.8542813366976816 20.0974848353438986
 16.2209599155816804 23.8542813366976816 22.9824805025850125
 16.2209599155816804 23.8542813366976816 25.8674761698261264
 16.2209599155816804 23.8542813366976816 28.7524718370672403
 13.8447646704801564 22.1278744362873070 14.3274935008616708
 13.8447646704801564 22.1278744362873070 17.2124891681027847
 13.8447646704801564 22.1278744362873070 20.0974848353438986
 13.8447646704801564 22.1278744362873070 22.9824805025850125
 13.8447646704801564 22.1278744362873070 25.8674761698261264
 13.8447646704801564 22.1278744362873070 28.7524718370672403
 11.4685694253786323 20.4014675358769253 14.3274935008616708
 11.4685694253786323 20.4014675358769253 17.2124891681027847
 11.4685694253786323 20.4014675358769253 20.0974848353438986
 11.4685694253786323 20.4014675358769253 22.9824805025850125
 11.4685694253786323 20.4014675358769253 25.8674761698261264
 11.4685694253786323 20.4014675358769253 28.7524718370672403
 12.3761952451015276 17.6080824926005803 14.3274935008616708
 12.3761952451015276 17.6080824926005803 17.2124891681027847
 12.3761952451015276 17.6080824926005803 20.0974848353438986
 12.3761952451015276 17.6080824926005803 22.9824805025850125
 12.3761952451015276 17.6080824926005803 25.8674761698261264
 12.3761952451015276 17.6080824926005803 28.7524718370672403
 13.2838210648244210 14.8146974493242318 14.3274935008616708
 13.2838210648244210 14.8146974493242318 17.2124891681027847
 13.2838210648244210 14.8146974493242318 20.0974848353438986
 13.2838210648244210 14.8146974493242318 22.9824805025850125
 13.2838210648244210 14.8146974493242318 25.8674761698261264
 13.2838210648244210 14.8146974493242318 28.7524718370672403
 14.1914468845473163 12.0213124060478851 14.3274935008616708
 14.1914468845473163 12.0213124060478851 17.2124891681027847
 14.1914468845473163 12.0213124060478851 20.0974848353438986
 14.1914468845473163 12.0213124060478851 22.9824805025850125
 14.1914468845473163 12.0213124060478851 25.8674761698261264
 14.1914468845473163 12.0213124060478851 28.7524718370672403
 17.1285857353045721 12.0213124060478851 14.3274935008616708
 17.1285857353045721 12.0213124060478851 17.2124891681027847
 17.1285857353045721 12.0213124060478851 20.0974848353438986
 17.1285857353045721 12.0213124060478851 22.9824805025850125
 17.1285857353045721 12.0213124060478851 25.8674761698261264
 17.1285857353045721 12.0213124060478851 28.7524718370672403
 20.0657245860618261 12.0213124060478851 14.3274935008616708
 20.0657245860618261 12.0213124060478851 17.2124891681027847
 20.0657245860618261 12.0213124060478851 20.0974848353438986
 20.0657245860618261 12.0213124060478851 22.9824805025850125
 20.0657245860618261 12.0213124060478851 25.8674761698261264
 20.0657245860618261 12.0213124060478851 28.7524718370672403
 23.0028634368190836 12.0213124060478833 14.3274935008616708
 23.0028634368190836 12.0213124060478833 17.2124891681027847
 23.0028634368190836 12.0213124060478833 20.0974848353438986
 23.0028634368190836 12.0213124060478833 22.9824805025850125
 23.0028634368190836 12.0213124060478833 25.8674761698261264
 23.0028634368190836 12.0213124060478833 28.7524718370672403
 23.9104892565419789 14.8146974493242318 14.3274935008616708
 23.9104892565419789 14.8146974493242318 17.2124891681027847
 23.9104892565419789 14.8146974493242318 20.0974848353438986
 23.9104892565419789 14.8146974493242318 22.9824805025850125
 23.9104892565419789 14.8146974493242318 25.8674761698261264
 23.9104892565419789 14.8146974493242318 28.7524718370672403
 24.8181150762648741 17.6080824926005768 14.3274935008616708
 24.8181150762648741 17.6080824926005768 17.2124891681027847
 24.8181150762648741 17.6080824926005768 20.0974848353438986
 24.8181150762648741 17.6080824926005768 22.9824805025850125
 24.8181150762648741 17.6080824926005768 25.8674761698261264
 24.8181150762648741 17.6080824926005768 28.7524718370672403
 25.7257408959877694 22.8999470735157651 15.7699913344822278
 25.7257408959877694 22.8999470735157651 18.6549870017233417
 25.7257408959877694 22.8999470735157651 21.5399826689644556
 25.7257408959877694 22.8999470735157651 24.4249783362055695
 25.7257408959877694 22.8999470735157651 27.3099740034466834
 23.3495456508862453 24.6263539739261432 15.7699913344822278
 23.3495456508862453 24.6263539739261432 18.6549870017233417
 23.3495456508862453 24.6263539739261432 21.5399826689644556
 23.3495456508862453 24.6263539739261432 24.4249783362055695
 23.3495456508862453 24.6263539739261432 27.3099740034466834
 20.9733504057847249 26.3527608743365249 15.7699913344822278
 20.9733504057847249 26.3527608743365249 18.6549870017233417
 20.9733504057847249 26.3527608743365249 21.5399826689644556
 20.9733504057847249 26.3527608743365249 24.4249783362055695
 20.9733504057847249 26.3527608743365249 27.3099740034466834
 16.2209599155816804 26.3527608743365249 15.7699913344822278
 16.2209599155816804 26.3527608743365249 18.6549870017233417
 16.2209599155816804 26.3527608743365249 21.5399826689644556
 16.2209599155816804 26.3527608743365249 24.4249783362055695
 16.2209599155816804 26.3527608743365249 27.3099740034466834
 13.8447646704801564 24.6263539739261468 15.7699913344822278
 13.8447646704801564 24.6263539739261468 18.6549870017233417
 13.8447646704801564 24.6263539739261468 21.5399826689644556
 13.8447646704801564 24.6263539739261468 24.4249783362055695
 13.8447646704801564 24.6263539739261468 27.3099740034466834
 11.4685694253786323 22.8999470735157686 15.7699913344822278
 11.4685694253786323 22.8999470735157686 18.6549870017233417
 11.4685694253786323 22.8999470735157686 21.5399826689644556
 11.4685694253786323 22.8999470735157686 24.4249783362055695
 11.4685694253786323 22.8999470735157686 27.3099740034466834
 10.0000000000000036 18.3801551298290420 15.7699913344822278
 10.0000000000000036 18.3801551298290420 18.6549870017233417
 10.0000000000000036 18.3801551298290420 21.5399826689644556
 10.0000000000000036 18.3801551298290420 24.4249783362055695
 10.0000000000000036 18.3801551298290420 27.3099740034466834
 10.9076258197228988 15.5867700865526970 15.7699913344822278
 10.9076258197228988 15.5867700865526970 18.6549870017233417
 10.9076258197228988 15.5867700865526970 21.5399826689644556
 10.9076258197228988 15.5867700865526970 24.4249783362055695
 10.9076258197228988 15.5867700865526970 27.3099740034466834
 11.8152516394457940 12.7933850432763485 15.7699913344822278
 11.8152516394457940 12.7933850432763485 18.6549870017233417
 11.8152516394457940 12.7933850432763485 21.5399826689644556
 11.8152516394457940 12.7933850432763485 24.4249783362055695
 11.8152516394457940 12.7933850432763485 27.3099740034466834
 15.6600163099259433 10.0000000000000000 15.7699913344822278
 15.6600163099259433 10.0000000000000000 18.6549870017233417
 15.6600163099259433 10.0000000000000000 21.5399826689644556
 15.6600163099259433 10.0000000000000000 24.4249783362055695
 15.6600163099259433 10.0000000000000000 27.3099740034466834
 18.5971551606832008 10.0000000000000000 15.7699913344822278
 18.5971551606832008 10.0000000000000000 18.6549870017233417
 18.5971551606832008 10.0000000000000000 21.5399826689644556
 18.5971551606832008 10.0000000000000000 24.4249783362055695
 18.5971551606832008 10.0000000000000000 27.3099740034466834
 21.5342940114404549 10.0000000000000000 15.7699913344822278
 21.5342940114404549 10.0000000000000000 18.6549870017233417
 21.5342940114404549 10.0000000000000000 21.5399826689644556
 21.5342940114404549 10.0000000000000000 24.4249783362055695
 21.5342940114404549 10.0000000000000000 27.3099740034466834
 25.3790586819206041 12.7933850432763467 15.7699913344822278
 25.3790586819206041 12.7933850432763467 18.6549870017233417
 25.3790586819206041 12.7933850432763467 21.5399826689644556
 25.3790586819206041 12.7933850432763467 24.4249783362055695
 25.3790586819206041 12.7933850432763467 27.3099740034466834
 26.2866845016434993 15.5867700865526935 15.7699913344822278
 26.2866845016434993 15.5867700865526935 18.6549870017233417
 26.2866845016434993 15.5867700865526935 21.5399826689644556
 26.2866845016434993 15.5867700865526935 24.4249783362055695
 26.2866845016434993 15.5867700865526935 27.3099740034466834
 27.1943103213663946 18.3801551298290420 15.7699913344822278
 27.1943103213663946 18.3801551298290420 18.6549870017233417
 27.1943103213663946 18.3801551298290420 21.5399826689644556
 27.1943103213663946 18.3801551298290420 24.4249783362055695
 27.1943103213663946 18.3801551298290420 27.3099740034466834
