Pt 
 1.0000000000000000
    29.1320444713705555    0.0000000000000000    0.0000000000000000
     0.0000000000000000   28.6850904015940991    0.0000000000000000
     0.0000000000000000    0.0000000000000000   31.0874343290050632
 Pt 
  55
Cartesian
 14.5660222356852778 13.8840905057390707 10.0000000000000000
 14.5660222356852778 13.8840905057390707 12.7718585822512658
 14.5660222356852778 13.8840905057390707 15.5437171645025316
 14.5660222356852778 13.8840905057390707 18.3155757467537974
 14.5660222356852778 13.8840905057390707 21.0874343290050632
 16.8490333535279184 14.6258857846448489 11.3859292911256311
 16.8490333535279184 14.6258857846448489 14.1577878733768987
 16.8490333535279184 14.6258857846448489 16.9296464556281663
 16.8490333535279184 14.6258857846448489 19.7015050378794321
 14.5660222356852778 16.2845904536665849 11.3859292911256311
 14.5660222356852778 16.2845904536665849 14.1577878733768987
 14.5660222356852778 16.2845904536665849 16.9296464556281663
 14.5660222356852778 16.2845904536665849 19.7015050378794321
 12.2830111178426389 14.6258857846448489 11.3859292911256311
 12.2830111178426389 14.6258857846448489 14.1577878733768987
 12.2830111178426389 14.6258857846448489 16.9296464556281663
 12.2830111178426389 14.6258857846448489 19.7015050378794321
 13.1550437681646351 11.9420452528695353 11.3859292911256311
 13.1550437681646351 11.9420452528695353 14.1577878733768987
 13.1550437681646351 11.9420452528695353 16.9296464556281663
 13.1550437681646351 11.9420452528695353 19.7015050378794321
 15.9770007032059205 11.9420452528695353 11.3859292911256311
 15.9770007032059205 11.9420452528695353 14.1577878733768987
 15.9770007032059205 11.9420452528695353 16.9296464556281663
 15.9770007032059205 11.9420452528695353 19.7015050378794321
 19.1320444713705555 15.3676810635506254 12.7718585822512658
 19.1320444713705555 15.3676810635506254 15.5437171645025316
 19.1320444713705555 15.3676810635506254 18.3155757467537974
 16.8490333535279184 17.0263857325723613 12.7718585822512658
 16.8490333535279184 17.0263857325723613 15.5437171645025316
 16.8490333535279184 17.0263857325723613 18.3155757467537974
 14.5660222356852778 18.6850904015940991 12.7718585822512658
 14.5660222356852778 18.6850904015940991 15.5437171645025316
 14.5660222356852778 18.6850904015940991 18.3155757467537974
 12.2830111178426389 17.0263857325723649 12.7718585822512658
 12.2830111178426389 17.0263857325723649 15.5437171645025316
 12.2830111178426389 17.0263857325723649 18.3155757467537974
 10.0000000000000000 15.3676810635506271 12.7718585822512658
 10.0000000000000000 15.3676810635506271 15.5437171645025316
 10.0000000000000000 15.3676810635506271 18.3155757467537974
 10.8720326503219944 12.6838405317753136 12.7718585822512658
 10.8720326503219944 12.6838405317753136 15.5437171645025316
 10.8720326503219944 12.6838405317753136 18.3155757467537974
 11.7440653006439923 10.0000000000000000 12.7718585822512658
 11.7440653006439923 10.0000000000000000 15.5437171645025316
 11.7440653006439923 10.0000000000000000 18.3155757467537974
 14.5660222356852778 10.0000000000000000 12.7718585822512658
 14.5660222356852778 10.0000000000000000 15.5437171645025316
 14.5660222356852778 10.0000000000000000 18.3155757467537974
 17.3879791707265632 10.0000000000000000 12.7718585822512658
 17.3879791707265632 10.0000000000000000 15.5437171645025316
 17.3879791707265632 10.0000000000000000 18.3155757467537974
 18.2600118210485576 12.6838405317753136 12.7718585822512658
 18.2600118210485576 12.6838405317753136 15.5437171645025316
 18.2600118210485576 12.6838405317753136 18.3155757467537974
