Au 
 1.0000000000000000
    24.7523904902030445    0.0000000000000000    0.0000000000000000
     0.0000000000000000   24.5197919436867267    0.0000000000000000
     0.0000000000000000    0.0000000000000000   25.7699913344822278
 Au 
  13
Cartesian
 12.3761952451015222 12.0213124060478833 10.0000000000000000
 12.3761952451015222 12.0213124060478833 12.8849956672411139
 12.3761952451015222 12.0213124060478833 15.7699913344822278
 14.7523904902030445 12.7933850432763450 11.4424978336205569
 14.7523904902030445 12.7933850432763450 14.3274935008616708
 12.3761952451015222 14.5197919436867249 11.4424978336205569
 12.3761952451015222 14.5197919436867249 14.3274935008616708
 10.0000000000000000 12.7933850432763467 11.4424978336205569
 10.0000000000000000 12.7933850432763467 14.3274935008616708
 10.9076258197228935 10.0000000000000000 11.4424978336205569
 10.9076258197228935 10.0000000000000000 14.3274935008616708
 13.8447646704801492 10.0000000000000000 11.4424978336205569
 13.8447646704801492 10.0000000000000000 14.3274935008616708
