Pt 
 1.0000000000000000
    45.6520681134676778    0.0000000000000000    0.0000000000000000
     0.0000000000000000   44.3965665357605630    0.0000000000000000
     0.0000000000000000    0.0000000000000000   36.6311514935076019
 Pt 
 282
Cartesian
 22.8260340567338389 21.6522715172172155 10.0000000000000018
 22.8260340567338389 21.6522715172172155 12.7718585822512676
 22.8260340567338389 21.6522715172172155 15.5437171645025352
 22.8260340567338389 21.6522715172172155 18.3155757467538010
 22.8260340567338389 21.6522715172172155 21.0874343290050668
 22.8260340567338389 21.6522715172172155 23.8592929112563326
 22.8260340567338389 21.6522715172172155 26.6311514935076019
 25.1090451745764796 22.3940667961229920 11.3859292911256347
 25.1090451745764796 22.3940667961229920 14.1577878733769023
 25.1090451745764796 22.3940667961229920 16.9296464556281663
 25.1090451745764796 22.3940667961229920 19.7015050378794356
 25.1090451745764796 22.3940667961229920 22.4733636201307014
 25.1090451745764796 22.3940667961229920 25.2452222023819672
 22.8260340567338389 24.0527714651447297 11.3859292911256347
 22.8260340567338389 24.0527714651447297 14.1577878733769023
 22.8260340567338389 24.0527714651447297 16.9296464556281663
 22.8260340567338389 24.0527714651447297 19.7015050378794356
 22.8260340567338389 24.0527714651447297 22.4733636201307014
 22.8260340567338389 24.0527714651447297 25.2452222023819672
 20.5430229388911982 22.3940667961229956 11.3859292911256347
 20.5430229388911982 22.3940667961229956 14.1577878733769023
 20.5430229388911982 22.3940667961229956 16.9296464556281663
 20.5430229388911982 22.3940667961229956 19.7015050378794356
 20.5430229388911982 22.3940667961229956 22.4733636201307014
 20.5430229388911982 22.3940667961229956 25.2452222023819672
 21.4150555892131962 19.7102262643476820 11.3859292911256347
 21.4150555892131962 19.7102262643476820 14.1577878733769023
 21.4150555892131962 19.7102262643476820 16.9296464556281663
 21.4150555892131962 19.7102262643476820 19.7015050378794356
 21.4150555892131962 19.7102262643476820 22.4733636201307014
 21.4150555892131962 19.7102262643476820 25.2452222023819672
 24.2370125242544816 19.7102262643476784 11.3859292911256347
 24.2370125242544816 19.7102262643476784 14.1577878733769023
 24.2370125242544816 19.7102262643476784 16.9296464556281663
 24.2370125242544816 19.7102262643476784 19.7015050378794356
 24.2370125242544816 19.7102262643476784 22.4733636201307014
 24.2370125242544816 19.7102262643476784 25.2452222023819672
 27.3920562924191167 23.1358620750287720 12.7718585822512694
 27.3920562924191167 23.1358620750287720 15.5437171645025352
 27.3920562924191167 23.1358620750287720 18.3155757467538010
 27.3920562924191167 23.1358620750287720 21.0874343290050668
 27.3920562924191167 23.1358620750287720 23.8592929112563326
 25.1090451745764796 24.7945667440505062 12.7718585822512694
 25.1090451745764796 24.7945667440505062 15.5437171645025352
 25.1090451745764796 24.7945667440505062 18.3155757467538010
 25.1090451745764796 24.7945667440505062 21.0874343290050668
 25.1090451745764796 24.7945667440505062 23.8592929112563326
 22.8260340567338389 26.4532714130722439 12.7718585822512694
 22.8260340567338389 26.4532714130722439 15.5437171645025352
 22.8260340567338389 26.4532714130722439 18.3155757467538010
 22.8260340567338389 26.4532714130722439 21.0874343290050668
 22.8260340567338389 26.4532714130722439 23.8592929112563326
 20.5430229388911982 24.7945667440505062 12.7718585822512694
 20.5430229388911982 24.7945667440505062 15.5437171645025352
 20.5430229388911982 24.7945667440505062 18.3155757467538010
 20.5430229388911982 24.7945667440505062 21.0874343290050668
 20.5430229388911982 24.7945667440505062 23.8592929112563326
 18.2600118210485611 23.1358620750287720 12.7718585822512694
 18.2600118210485611 23.1358620750287720 15.5437171645025352
 18.2600118210485611 23.1358620750287720 18.3155757467538010
 18.2600118210485611 23.1358620750287720 21.0874343290050668
 18.2600118210485611 23.1358620750287720 23.8592929112563326
 19.1320444713705555 20.4520215432534584 12.7718585822512694
 19.1320444713705555 20.4520215432534584 15.5437171645025352
 19.1320444713705555 20.4520215432534584 18.3155757467538010
 19.1320444713705555 20.4520215432534584 21.0874343290050668
 19.1320444713705555 20.4520215432534584 23.8592929112563326
 20.0040771216925535 17.7681810114781449 12.7718585822512694
 20.0040771216925535 17.7681810114781449 15.5437171645025352
 20.0040771216925535 17.7681810114781449 18.3155757467538010
 20.0040771216925535 17.7681810114781449 21.0874343290050668
 20.0040771216925535 17.7681810114781449 23.8592929112563326
 22.8260340567338389 17.7681810114781449 12.7718585822512694
 22.8260340567338389 17.7681810114781449 15.5437171645025352
 22.8260340567338389 17.7681810114781449 18.3155757467538010
 22.8260340567338389 17.7681810114781449 21.0874343290050668
 22.8260340567338389 17.7681810114781449 23.8592929112563326
 25.6479909917751243 17.7681810114781449 12.7718585822512694
 25.6479909917751243 17.7681810114781449 15.5437171645025352
 25.6479909917751243 17.7681810114781449 18.3155757467538010
 25.6479909917751243 17.7681810114781449 21.0874343290050668
 25.6479909917751243 17.7681810114781449 23.8592929112563326
 26.5200236420971223 20.4520215432534584 12.7718585822512694
 26.5200236420971223 20.4520215432534584 15.5437171645025352
 26.5200236420971223 20.4520215432534584 18.3155757467538010
 26.5200236420971223 20.4520215432534584 21.0874343290050668
 26.5200236420971223 20.4520215432534584 23.8592929112563326
 29.6750674102617573 23.8776573539345485 14.1577878733769005
 29.6750674102617573 23.8776573539345485 16.9296464556281663
 29.6750674102617573 23.8776573539345485 19.7015050378794356
 29.6750674102617573 23.8776573539345485 22.4733636201307014
 27.3920562924191167 25.5363620229562862 14.1577878733769005
 27.3920562924191167 25.5363620229562862 16.9296464556281663
 27.3920562924191167 25.5363620229562862 19.7015050378794356
 27.3920562924191167 25.5363620229562862 22.4733636201307014
 25.1090451745764796 27.1950666919780204 14.1577878733769005
 25.1090451745764796 27.1950666919780204 16.9296464556281663
 25.1090451745764796 27.1950666919780204 19.7015050378794356
 25.1090451745764796 27.1950666919780204 22.4733636201307014
 22.8260340567338389 28.8537713609997581 14.1577878733769005
 22.8260340567338389 28.8537713609997581 16.9296464556281663
 22.8260340567338389 28.8537713609997581 19.7015050378794356
 22.8260340567338389 28.8537713609997581 22.4733636201307014
 20.5430229388911982 27.1950666919780204 14.1577878733769005
 20.5430229388911982 27.1950666919780204 16.9296464556281663
 20.5430229388911982 27.1950666919780204 19.7015050378794356
 20.5430229388911982 27.1950666919780204 22.4733636201307014
 18.2600118210485611 25.5363620229562862 14.1577878733769005
 18.2600118210485611 25.5363620229562862 16.9296464556281663
 18.2600118210485611 25.5363620229562862 19.7015050378794356
 18.2600118210485611 25.5363620229562862 22.4733636201307014
 15.9770007032059205 23.8776573539345520 14.1577878733769005
 15.9770007032059205 23.8776573539345520 16.9296464556281663
 15.9770007032059205 23.8776573539345520 19.7015050378794356
 15.9770007032059205 23.8776573539345520 22.4733636201307014
 16.8490333535279184 21.1938168221592385 14.1577878733769005
 16.8490333535279184 21.1938168221592385 16.9296464556281663
 16.8490333535279184 21.1938168221592385 19.7015050378794356
 16.8490333535279184 21.1938168221592385 22.4733636201307014
 17.7210660038499128 18.5099762903839249 14.1577878733769005
 17.7210660038499128 18.5099762903839249 16.9296464556281663
 17.7210660038499128 18.5099762903839249 19.7015050378794356
 17.7210660038499128 18.5099762903839249 22.4733636201307014
 18.5930986541719108 15.8261357586086113 14.1577878733769005
 18.5930986541719108 15.8261357586086113 16.9296464556281663
 18.5930986541719108 15.8261357586086113 19.7015050378794356
 18.5930986541719108 15.8261357586086113 22.4733636201307014
 21.4150555892131962 15.8261357586086095 14.1577878733769005
 21.4150555892131962 15.8261357586086095 16.9296464556281663
 21.4150555892131962 15.8261357586086095 19.7015050378794356
 21.4150555892131962 15.8261357586086095 22.4733636201307014
 24.2370125242544816 15.8261357586086078 14.1577878733769005
 24.2370125242544816 15.8261357586086078 16.9296464556281663
 24.2370125242544816 15.8261357586086078 19.7015050378794356
 24.2370125242544816 15.8261357586086078 22.4733636201307014
 27.0589694592957670 15.8261357586086078 14.1577878733769005
 27.0589694592957670 15.8261357586086078 16.9296464556281663
 27.0589694592957670 15.8261357586086078 19.7015050378794356
 27.0589694592957670 15.8261357586086078 22.4733636201307014
 27.9310021096177614 18.5099762903839213 14.1577878733769005
 27.9310021096177614 18.5099762903839213 16.9296464556281663
 27.9310021096177614 18.5099762903839213 19.7015050378794356
 27.9310021096177614 18.5099762903839213 22.4733636201307014
 28.8030347599397594 21.1938168221592349 14.1577878733769005
 28.8030347599397594 21.1938168221592349 16.9296464556281663
 28.8030347599397594 21.1938168221592349 19.7015050378794356
 28.8030347599397594 21.1938168221592349 22.4733636201307014
 31.9580785281043944 24.6194526328403249 15.5437171645025352
 31.9580785281043944 24.6194526328403249 18.3155757467538010
 31.9580785281043944 24.6194526328403249 21.0874343290050668
 29.6750674102617573 26.2781573018620627 15.5437171645025352
 29.6750674102617573 26.2781573018620627 18.3155757467538010
 29.6750674102617573 26.2781573018620627 21.0874343290050668
 27.3920562924191167 27.9368619708838004 15.5437171645025352
 27.3920562924191167 27.9368619708838004 18.3155757467538010
 27.3920562924191167 27.9368619708838004 21.0874343290050668
 25.1090451745764796 29.5955666399055346 15.5437171645025352
 25.1090451745764796 29.5955666399055346 18.3155757467538010
 25.1090451745764796 29.5955666399055346 21.0874343290050668
 22.8260340567338389 31.2542713089272723 15.5437171645025352
 22.8260340567338389 31.2542713089272723 18.3155757467538010
 22.8260340567338389 31.2542713089272723 21.0874343290050668
 20.5430229388911982 29.5955666399055346 15.5437171645025352
 20.5430229388911982 29.5955666399055346 18.3155757467538010
 20.5430229388911982 29.5955666399055346 21.0874343290050668
 18.2600118210485611 27.9368619708838004 15.5437171645025352
 18.2600118210485611 27.9368619708838004 18.3155757467538010
 18.2600118210485611 27.9368619708838004 21.0874343290050668
 15.9770007032059205 26.2781573018620662 15.5437171645025352
 15.9770007032059205 26.2781573018620662 18.3155757467538010
 15.9770007032059205 26.2781573018620662 21.0874343290050668
 13.6939895853632816 24.6194526328403285 15.5437171645025352
 13.6939895853632816 24.6194526328403285 18.3155757467538010
 13.6939895853632816 24.6194526328403285 21.0874343290050668
 14.5660222356852778 21.9356121010650149 15.5437171645025352
 14.5660222356852778 21.9356121010650149 18.3155757467538010
 14.5660222356852778 21.9356121010650149 21.0874343290050668
 15.4380548860072739 19.2517715692897013 15.5437171645025352
 15.4380548860072739 19.2517715692897013 18.3155757467538010
 15.4380548860072739 19.2517715692897013 21.0874343290050668
 16.3100875363292701 16.5679310375143878 15.5437171645025352
 16.3100875363292701 16.5679310375143878 18.3155757467538010
 16.3100875363292701 16.5679310375143878 21.0874343290050668
 17.1821201866512681 13.8840905057390742 15.5437171645025352
 17.1821201866512681 13.8840905057390742 18.3155757467538010
 17.1821201866512681 13.8840905057390742 21.0874343290050668
 20.0040771216925535 13.8840905057390742 15.5437171645025352
 20.0040771216925535 13.8840905057390742 18.3155757467538010
 20.0040771216925535 13.8840905057390742 21.0874343290050668
 22.8260340567338389 13.8840905057390742 15.5437171645025352
 22.8260340567338389 13.8840905057390742 18.3155757467538010
 22.8260340567338389 13.8840905057390742 21.0874343290050668
 25.6479909917751243 13.8840905057390724 15.5437171645025352
 25.6479909917751243 13.8840905057390724 18.3155757467538010
 25.6479909917751243 13.8840905057390724 21.0874343290050668
 28.4699479268164062 13.8840905057390724 15.5437171645025352
 28.4699479268164062 13.8840905057390724 18.3155757467538010
 28.4699479268164062 13.8840905057390724 21.0874343290050668
 29.3419805771384041 16.5679310375143842 15.5437171645025352
 29.3419805771384041 16.5679310375143842 18.3155757467538010
 29.3419805771384041 16.5679310375143842 21.0874343290050668
 30.2140132274604021 19.2517715692897013 15.5437171645025352
 30.2140132274604021 19.2517715692897013 18.3155757467538010
 30.2140132274604021 19.2517715692897013 21.0874343290050668
 31.0860458777824000 21.9356121010650114 15.5437171645025352
 31.0860458777824000 21.9356121010650114 18.3155757467538010
 31.0860458777824000 21.9356121010650114 21.0874343290050668
 34.2410896459470351 25.3612479117461049 16.9296464556281663
 34.2410896459470351 25.3612479117461049 19.7015050378794356
 31.9580785281043944 27.0199525807678427 16.9296464556281663
 31.9580785281043944 27.0199525807678427 19.7015050378794356
 29.6750674102617573 28.6786572497895769 16.9296464556281663
 29.6750674102617573 28.6786572497895769 19.7015050378794356
 27.3920562924191167 30.3373619188113111 16.9296464556281663
 27.3920562924191167 30.3373619188113111 19.7015050378794356
 25.1090451745764796 31.9960665878330488 16.9296464556281663
 25.1090451745764796 31.9960665878330488 19.7015050378794356
 22.8260340567338389 33.6547712568547865 16.9296464556281663
 22.8260340567338389 33.6547712568547865 19.7015050378794356
 20.5430229388911982 31.9960665878330488 16.9296464556281663
 20.5430229388911982 31.9960665878330488 19.7015050378794356
 18.2600118210485611 30.3373619188113146 16.9296464556281663
 18.2600118210485611 30.3373619188113146 19.7015050378794356
 15.9770007032059205 28.6786572497895804 16.9296464556281663
 15.9770007032059205 28.6786572497895804 19.7015050378794356
 13.6939895853632816 27.0199525807678427 16.9296464556281663
 13.6939895853632816 27.0199525807678427 19.7015050378794356
 11.4109784675206427 25.3612479117461085 16.9296464556281663
 11.4109784675206427 25.3612479117461085 19.7015050378794356
 12.2830111178426389 22.6774073799707949 16.9296464556281663
 12.2830111178426389 22.6774073799707949 19.7015050378794356
 13.1550437681646351 19.9935668481954814 16.9296464556281663
 13.1550437681646351 19.9935668481954814 19.7015050378794356
 14.0270764184866312 17.3097263164201678 16.9296464556281663
 14.0270764184866312 17.3097263164201678 19.7015050378794356
 14.8991090688086274 14.6258857846448542 16.9296464556281663
 14.8991090688086274 14.6258857846448542 19.7015050378794356
 15.7711417191306253 11.9420452528695407 16.9296464556281663
 15.7711417191306253 11.9420452528695407 19.7015050378794356
 18.5930986541719108 11.9420452528695389 16.9296464556281663
 18.5930986541719108 11.9420452528695389 19.7015050378794356
 21.4150555892131926 11.9420452528695389 16.9296464556281663
 21.4150555892131926 11.9420452528695389 19.7015050378794356
 24.2370125242544781 11.9420452528695371 16.9296464556281663
 24.2370125242544781 11.9420452528695371 19.7015050378794356
 27.0589694592957635 11.9420452528695371 16.9296464556281663
 27.0589694592957635 11.9420452528695371 19.7015050378794356
 29.8809263943370489 11.9420452528695371 16.9296464556281663
 29.8809263943370489 11.9420452528695371 19.7015050378794356
 30.7529590446590468 14.6258857846448507 16.9296464556281663
 30.7529590446590468 14.6258857846448507 19.7015050378794356
 31.6249916949810448 17.3097263164201642 16.9296464556281663
 31.6249916949810448 17.3097263164201642 19.7015050378794356
 32.4970243453030392 19.9935668481954778 16.9296464556281663
 32.4970243453030392 19.9935668481954778 19.7015050378794356
 33.3690569956250371 22.6774073799707914 16.9296464556281663
 33.3690569956250371 22.6774073799707914 19.7015050378794356
 34.2410896459470351 27.7617478596736191 18.3155757467538010
 31.9580785281043944 29.4204525286953569 18.3155757467538010
 29.6750674102617573 31.0791571977170911 18.3155757467538010
 27.3920562924191202 32.7378618667388253 18.3155757467538010
 25.1090451745764796 34.3965665357605630 18.3155757467538010
 20.5430229388912018 34.3965665357605630 18.3155757467538010
 18.2600118210485611 32.7378618667388253 18.3155757467538010
 15.9770007032059205 31.0791571977170946 18.3155757467538010
 13.6939895853632816 29.4204525286953569 18.3155757467538010
 11.4109784675206427 27.7617478596736227 18.3155757467538010
 10.0000000000000000 23.4192026588765714 18.3155757467538010
 10.8720326503219962 20.7353621271012578 18.3155757467538010
 11.7440653006439923 18.0515215953259442 18.3155757467538010
 12.6160979509659885 15.3676810635506325 18.3155757467538010
 13.4881306012879847 12.6838405317753189 18.3155757467538010
 17.1821201866512681 10.0000000000000053 18.3155757467538010
 20.0040771216925499 10.0000000000000036 18.3155757467538010
 22.8260340567338353 10.0000000000000036 18.3155757467538010
 25.6479909917751208 10.0000000000000018 18.3155757467538010
 28.4699479268164062 10.0000000000000018 18.3155757467538010
 32.1639375121796860 12.6838405317753153 18.3155757467538010
 33.0359701625016839 15.3676810635506271 18.3155757467538010
 33.9080028128236819 18.0515215953259407 18.3155757467538010
 34.7800354631456798 20.7353621271012543 18.3155757467538010
 35.6520681134676778 23.4192026588765678 18.3155757467538010
