Au 
 1.0000000000000000
    49.6362301525297411    0.0000000000000000    0.0000000000000000
     0.0000000000000000   48.1857298049863232    0.0000000000000000
     0.0000000000000000    0.0000000000000000   57.5049436741344806
 Au 
 1129
Cartesian
 24.8181150762648741 24.1491868423351903 10.0000000000000000
 24.8181150762648741 24.1491868423351903 12.8849956672411139
 24.8181150762648741 24.1491868423351903 15.7699913344822278
 24.8181150762648741 24.1491868423351903 18.6549870017233417
 24.8181150762648741 24.1491868423351903 21.5399826689644556
 24.8181150762648741 24.1491868423351903 24.4249783362055695
 24.8181150762648741 24.1491868423351903 27.3099740034466834
 24.8181150762648741 24.1491868423351903 30.1949696706877972
 24.8181150762648741 24.1491868423351903 33.0799653379289111
 24.8181150762648741 24.1491868423351903 35.9649610051700250
 24.8181150762648741 24.1491868423351903 38.8499566724111389
 24.8181150762648741 24.1491868423351903 41.7349523396522528
 24.8181150762648741 24.1491868423351903 44.6199480068933667
 24.8181150762648741 24.1491868423351903 47.5049436741344806
 27.1943103213663981 24.9212594795636520 11.4424978336205569
 27.1943103213663981 24.9212594795636520 14.3274935008616708
 27.1943103213663981 24.9212594795636520 17.2124891681027847
 27.1943103213663981 24.9212594795636520 20.0974848353438986
 27.1943103213663981 24.9212594795636520 22.9824805025850125
 27.1943103213663981 24.9212594795636520 25.8674761698261264
 27.1943103213663981 24.9212594795636520 28.7524718370672403
 27.1943103213663981 24.9212594795636520 31.6374675043083542
 27.1943103213663981 24.9212594795636520 34.5224631715494681
 27.1943103213663981 24.9212594795636520 37.4074588387905820
 27.1943103213663981 24.9212594795636520 40.2924545060316959
 27.1943103213663981 24.9212594795636520 43.1774501732728098
 27.1943103213663981 24.9212594795636520 46.0624458405139237
 24.8181150762648741 26.6476663799740336 11.4424978336205569
 24.8181150762648741 26.6476663799740336 14.3274935008616708
 24.8181150762648741 26.6476663799740336 17.2124891681027847
 24.8181150762648741 26.6476663799740336 20.0974848353438986
 24.8181150762648741 26.6476663799740336 22.9824805025850125
 24.8181150762648741 26.6476663799740336 25.8674761698261264
 24.8181150762648741 26.6476663799740336 28.7524718370672403
 24.8181150762648741 26.6476663799740336 31.6374675043083542
 24.8181150762648741 26.6476663799740336 34.5224631715494681
 24.8181150762648741 26.6476663799740336 37.4074588387905820
 24.8181150762648741 26.6476663799740336 40.2924545060316959
 24.8181150762648741 26.6476663799740336 43.1774501732728098
 24.8181150762648741 26.6476663799740336 46.0624458405139237
 22.4419198311633501 24.9212594795636520 11.4424978336205569
 22.4419198311633501 24.9212594795636520 14.3274935008616708
 22.4419198311633501 24.9212594795636520 17.2124891681027847
 22.4419198311633501 24.9212594795636520 20.0974848353438986
 22.4419198311633501 24.9212594795636520 22.9824805025850125
 22.4419198311633501 24.9212594795636520 25.8674761698261264
 22.4419198311633501 24.9212594795636520 28.7524718370672403
 22.4419198311633501 24.9212594795636520 31.6374675043083542
 22.4419198311633501 24.9212594795636520 34.5224631715494681
 22.4419198311633501 24.9212594795636520 37.4074588387905820
 22.4419198311633501 24.9212594795636520 40.2924545060316959
 22.4419198311633501 24.9212594795636520 43.1774501732728098
 22.4419198311633501 24.9212594795636520 46.0624458405139237
 23.3495456508862453 22.1278744362873070 11.4424978336205569
 23.3495456508862453 22.1278744362873070 14.3274935008616708
 23.3495456508862453 22.1278744362873070 17.2124891681027847
 23.3495456508862453 22.1278744362873070 20.0974848353438986
 23.3495456508862453 22.1278744362873070 22.9824805025850125
 23.3495456508862453 22.1278744362873070 25.8674761698261264
 23.3495456508862453 22.1278744362873070 28.7524718370672403
 23.3495456508862453 22.1278744362873070 31.6374675043083542
 23.3495456508862453 22.1278744362873070 34.5224631715494681
 23.3495456508862453 22.1278744362873070 37.4074588387905820
 23.3495456508862453 22.1278744362873070 40.2924545060316959
 23.3495456508862453 22.1278744362873070 43.1774501732728098
 23.3495456508862453 22.1278744362873070 46.0624458405139237
 26.2866845016435029 22.1278744362873070 11.4424978336205569
 26.2866845016435029 22.1278744362873070 14.3274935008616708
 26.2866845016435029 22.1278744362873070 17.2124891681027847
 26.2866845016435029 22.1278744362873070 20.0974848353438986
 26.2866845016435029 22.1278744362873070 22.9824805025850125
 26.2866845016435029 22.1278744362873070 25.8674761698261264
 26.2866845016435029 22.1278744362873070 28.7524718370672403
 26.2866845016435029 22.1278744362873070 31.6374675043083542
 26.2866845016435029 22.1278744362873070 34.5224631715494681
 26.2866845016435029 22.1278744362873070 37.4074588387905820
 26.2866845016435029 22.1278744362873070 40.2924545060316959
 26.2866845016435029 22.1278744362873070 43.1774501732728098
 26.2866845016435029 22.1278744362873070 46.0624458405139237
 29.5705055664679186 25.6933321167921136 12.8849956672411139
 29.5705055664679186 25.6933321167921136 15.7699913344822278
 29.5705055664679186 25.6933321167921136 18.6549870017233417
 29.5705055664679186 25.6933321167921136 21.5399826689644556
 29.5705055664679186 25.6933321167921136 24.4249783362055695
 29.5705055664679186 25.6933321167921136 27.3099740034466834
 29.5705055664679186 25.6933321167921136 30.1949696706877972
 29.5705055664679186 25.6933321167921136 33.0799653379289111
 29.5705055664679186 25.6933321167921136 35.9649610051700250
 29.5705055664679186 25.6933321167921136 38.8499566724111389
 29.5705055664679186 25.6933321167921136 41.7349523396522528
 29.5705055664679186 25.6933321167921136 44.6199480068933667
 27.1943103213663981 27.4197390172024953 12.8849956672411139
 27.1943103213663981 27.4197390172024953 15.7699913344822278
 27.1943103213663981 27.4197390172024953 18.6549870017233417
 27.1943103213663981 27.4197390172024953 21.5399826689644556
 27.1943103213663981 27.4197390172024953 24.4249783362055695
 27.1943103213663981 27.4197390172024953 27.3099740034466834
 27.1943103213663981 27.4197390172024953 30.1949696706877972
 27.1943103213663981 27.4197390172024953 33.0799653379289111
 27.1943103213663981 27.4197390172024953 35.9649610051700250
 27.1943103213663981 27.4197390172024953 38.8499566724111389
 27.1943103213663981 27.4197390172024953 41.7349523396522528
 27.1943103213663981 27.4197390172024953 44.6199480068933667
 24.8181150762648741 29.1461459176128734 12.8849956672411139
 24.8181150762648741 29.1461459176128734 15.7699913344822278
 24.8181150762648741 29.1461459176128734 18.6549870017233417
 24.8181150762648741 29.1461459176128734 21.5399826689644556
 24.8181150762648741 29.1461459176128734 24.4249783362055695
 24.8181150762648741 29.1461459176128734 27.3099740034466834
 24.8181150762648741 29.1461459176128734 30.1949696706877972
 24.8181150762648741 29.1461459176128734 33.0799653379289111
 24.8181150762648741 29.1461459176128734 35.9649610051700250
 24.8181150762648741 29.1461459176128734 38.8499566724111389
 24.8181150762648741 29.1461459176128734 41.7349523396522528
 24.8181150762648741 29.1461459176128734 44.6199480068933667
 22.4419198311633501 27.4197390172024953 12.8849956672411139
 22.4419198311633501 27.4197390172024953 15.7699913344822278
 22.4419198311633501 27.4197390172024953 18.6549870017233417
 22.4419198311633501 27.4197390172024953 21.5399826689644556
 22.4419198311633501 27.4197390172024953 24.4249783362055695
 22.4419198311633501 27.4197390172024953 27.3099740034466834
 22.4419198311633501 27.4197390172024953 30.1949696706877972
 22.4419198311633501 27.4197390172024953 33.0799653379289111
 22.4419198311633501 27.4197390172024953 35.9649610051700250
 22.4419198311633501 27.4197390172024953 38.8499566724111389
 22.4419198311633501 27.4197390172024953 41.7349523396522528
 22.4419198311633501 27.4197390172024953 44.6199480068933667
 20.0657245860618296 25.6933321167921171 12.8849956672411139
 20.0657245860618296 25.6933321167921171 15.7699913344822278
 20.0657245860618296 25.6933321167921171 18.6549870017233417
 20.0657245860618296 25.6933321167921171 21.5399826689644556
 20.0657245860618296 25.6933321167921171 24.4249783362055695
 20.0657245860618296 25.6933321167921171 27.3099740034466834
 20.0657245860618296 25.6933321167921171 30.1949696706877972
 20.0657245860618296 25.6933321167921171 33.0799653379289111
 20.0657245860618296 25.6933321167921171 35.9649610051700250
 20.0657245860618296 25.6933321167921171 38.8499566724111389
 20.0657245860618296 25.6933321167921171 41.7349523396522528
 20.0657245860618296 25.6933321167921171 44.6199480068933667
 20.9733504057847213 22.8999470735157686 12.8849956672411139
 20.9733504057847213 22.8999470735157686 15.7699913344822278
 20.9733504057847213 22.8999470735157686 18.6549870017233417
 20.9733504057847213 22.8999470735157686 21.5399826689644556
 20.9733504057847213 22.8999470735157686 24.4249783362055695
 20.9733504057847213 22.8999470735157686 27.3099740034466834
 20.9733504057847213 22.8999470735157686 30.1949696706877972
 20.9733504057847213 22.8999470735157686 33.0799653379289111
 20.9733504057847213 22.8999470735157686 35.9649610051700250
 20.9733504057847213 22.8999470735157686 38.8499566724111389
 20.9733504057847213 22.8999470735157686 41.7349523396522528
 20.9733504057847213 22.8999470735157686 44.6199480068933667
 21.8809762255076166 20.1065620302394237 12.8849956672411139
 21.8809762255076166 20.1065620302394237 15.7699913344822278
 21.8809762255076166 20.1065620302394237 18.6549870017233417
 21.8809762255076166 20.1065620302394237 21.5399826689644556
 21.8809762255076166 20.1065620302394237 24.4249783362055695
 21.8809762255076166 20.1065620302394237 27.3099740034466834
 21.8809762255076166 20.1065620302394237 30.1949696706877972
 21.8809762255076166 20.1065620302394237 33.0799653379289111
 21.8809762255076166 20.1065620302394237 35.9649610051700250
 21.8809762255076166 20.1065620302394237 38.8499566724111389
 21.8809762255076166 20.1065620302394237 41.7349523396522528
 21.8809762255076166 20.1065620302394237 44.6199480068933667
 24.8181150762648741 20.1065620302394237 12.8849956672411139
 24.8181150762648741 20.1065620302394237 15.7699913344822278
 24.8181150762648741 20.1065620302394237 18.6549870017233417
 24.8181150762648741 20.1065620302394237 21.5399826689644556
 24.8181150762648741 20.1065620302394237 24.4249783362055695
 24.8181150762648741 20.1065620302394237 27.3099740034466834
 24.8181150762648741 20.1065620302394237 30.1949696706877972
 24.8181150762648741 20.1065620302394237 33.0799653379289111
 24.8181150762648741 20.1065620302394237 35.9649610051700250
 24.8181150762648741 20.1065620302394237 38.8499566724111389
 24.8181150762648741 20.1065620302394237 41.7349523396522528
 24.8181150762648741 20.1065620302394237 44.6199480068933667
 27.7552539270221281 20.1065620302394237 12.8849956672411139
 27.7552539270221281 20.1065620302394237 15.7699913344822278
 27.7552539270221281 20.1065620302394237 18.6549870017233417
 27.7552539270221281 20.1065620302394237 21.5399826689644556
 27.7552539270221281 20.1065620302394237 24.4249783362055695
 27.7552539270221281 20.1065620302394237 27.3099740034466834
 27.7552539270221281 20.1065620302394237 30.1949696706877972
 27.7552539270221281 20.1065620302394237 33.0799653379289111
 27.7552539270221281 20.1065620302394237 35.9649610051700250
 27.7552539270221281 20.1065620302394237 38.8499566724111389
 27.7552539270221281 20.1065620302394237 41.7349523396522528
 27.7552539270221281 20.1065620302394237 44.6199480068933667
 28.6628797467450234 22.8999470735157686 12.8849956672411139
 28.6628797467450234 22.8999470735157686 15.7699913344822278
 28.6628797467450234 22.8999470735157686 18.6549870017233417
 28.6628797467450234 22.8999470735157686 21.5399826689644556
 28.6628797467450234 22.8999470735157686 24.4249783362055695
 28.6628797467450234 22.8999470735157686 27.3099740034466834
 28.6628797467450234 22.8999470735157686 30.1949696706877972
 28.6628797467450234 22.8999470735157686 33.0799653379289111
 28.6628797467450234 22.8999470735157686 35.9649610051700250
 28.6628797467450234 22.8999470735157686 38.8499566724111389
 28.6628797467450234 22.8999470735157686 41.7349523396522528
 28.6628797467450234 22.8999470735157686 44.6199480068933667
 31.9467008115694426 26.4654047540205788 14.3274935008616708
 31.9467008115694426 26.4654047540205788 17.2124891681027847
 31.9467008115694426 26.4654047540205788 20.0974848353438986
 31.9467008115694426 26.4654047540205788 22.9824805025850125
 31.9467008115694426 26.4654047540205788 25.8674761698261264
 31.9467008115694426 26.4654047540205788 28.7524718370672403
 31.9467008115694426 26.4654047540205788 31.6374675043083542
 31.9467008115694426 26.4654047540205788 34.5224631715494681
 31.9467008115694426 26.4654047540205788 37.4074588387905820
 31.9467008115694426 26.4654047540205788 40.2924545060316959
 31.9467008115694426 26.4654047540205788 43.1774501732728098
 29.5705055664679186 28.1918116544309569 14.3274935008616708
 29.5705055664679186 28.1918116544309569 17.2124891681027847
 29.5705055664679186 28.1918116544309569 20.0974848353438986
 29.5705055664679186 28.1918116544309569 22.9824805025850125
 29.5705055664679186 28.1918116544309569 25.8674761698261264
 29.5705055664679186 28.1918116544309569 28.7524718370672403
 29.5705055664679186 28.1918116544309569 31.6374675043083542
 29.5705055664679186 28.1918116544309569 34.5224631715494681
 29.5705055664679186 28.1918116544309569 37.4074588387905820
 29.5705055664679186 28.1918116544309569 40.2924545060316959
 29.5705055664679186 28.1918116544309569 43.1774501732728098
 27.1943103213663981 29.9182185548413351 14.3274935008616708
 27.1943103213663981 29.9182185548413351 17.2124891681027847
 27.1943103213663981 29.9182185548413351 20.0974848353438986
 27.1943103213663981 29.9182185548413351 22.9824805025850125
 27.1943103213663981 29.9182185548413351 25.8674761698261264
 27.1943103213663981 29.9182185548413351 28.7524718370672403
 27.1943103213663981 29.9182185548413351 31.6374675043083542
 27.1943103213663981 29.9182185548413351 34.5224631715494681
 27.1943103213663981 29.9182185548413351 37.4074588387905820
 27.1943103213663981 29.9182185548413351 40.2924545060316959
 27.1943103213663981 29.9182185548413351 43.1774501732728098
 24.8181150762648741 31.6446254552517132 14.3274935008616708
 24.8181150762648741 31.6446254552517132 17.2124891681027847
 24.8181150762648741 31.6446254552517132 20.0974848353438986
 24.8181150762648741 31.6446254552517132 22.9824805025850125
 24.8181150762648741 31.6446254552517132 25.8674761698261264
 24.8181150762648741 31.6446254552517132 28.7524718370672403
 24.8181150762648741 31.6446254552517132 31.6374675043083542
 24.8181150762648741 31.6446254552517132 34.5224631715494681
 24.8181150762648741 31.6446254552517132 37.4074588387905820
 24.8181150762648741 31.6446254552517132 40.2924545060316959
 24.8181150762648741 31.6446254552517132 43.1774501732728098
 22.4419198311633536 29.9182185548413386 14.3274935008616708
 22.4419198311633536 29.9182185548413386 17.2124891681027847
 22.4419198311633536 29.9182185548413386 20.0974848353438986
 22.4419198311633536 29.9182185548413386 22.9824805025850125
 22.4419198311633536 29.9182185548413386 25.8674761698261264
 22.4419198311633536 29.9182185548413386 28.7524718370672403
 22.4419198311633536 29.9182185548413386 31.6374675043083542
 22.4419198311633536 29.9182185548413386 34.5224631715494681
 22.4419198311633536 29.9182185548413386 37.4074588387905820
 22.4419198311633536 29.9182185548413386 40.2924545060316959
 22.4419198311633536 29.9182185548413386 43.1774501732728098
 20.0657245860618296 28.1918116544309569 14.3274935008616708
 20.0657245860618296 28.1918116544309569 17.2124891681027847
 20.0657245860618296 28.1918116544309569 20.0974848353438986
 20.0657245860618296 28.1918116544309569 22.9824805025850125
 20.0657245860618296 28.1918116544309569 25.8674761698261264
 20.0657245860618296 28.1918116544309569 28.7524718370672403
 20.0657245860618296 28.1918116544309569 31.6374675043083542
 20.0657245860618296 28.1918116544309569 34.5224631715494681
 20.0657245860618296 28.1918116544309569 37.4074588387905820
 20.0657245860618296 28.1918116544309569 40.2924545060316959
 20.0657245860618296 28.1918116544309569 43.1774501732728098
 17.6895293409603056 26.4654047540205788 14.3274935008616708
 17.6895293409603056 26.4654047540205788 17.2124891681027847
 17.6895293409603056 26.4654047540205788 20.0974848353438986
 17.6895293409603056 26.4654047540205788 22.9824805025850125
 17.6895293409603056 26.4654047540205788 25.8674761698261264
 17.6895293409603056 26.4654047540205788 28.7524718370672403
 17.6895293409603056 26.4654047540205788 31.6374675043083542
 17.6895293409603056 26.4654047540205788 34.5224631715494681
 17.6895293409603056 26.4654047540205788 37.4074588387905820
 17.6895293409603056 26.4654047540205788 40.2924545060316959
 17.6895293409603056 26.4654047540205788 43.1774501732728098
 18.5971551606832008 23.6720197107442338 14.3274935008616708
 18.5971551606832008 23.6720197107442338 17.2124891681027847
 18.5971551606832008 23.6720197107442338 20.0974848353438986
 18.5971551606832008 23.6720197107442338 22.9824805025850125
 18.5971551606832008 23.6720197107442338 25.8674761698261264
 18.5971551606832008 23.6720197107442338 28.7524718370672403
 18.5971551606832008 23.6720197107442338 31.6374675043083542
 18.5971551606832008 23.6720197107442338 34.5224631715494681
 18.5971551606832008 23.6720197107442338 37.4074588387905820
 18.5971551606832008 23.6720197107442338 40.2924545060316959
 18.5971551606832008 23.6720197107442338 43.1774501732728098
 19.5047809804060961 20.8786346674678853 14.3274935008616708
 19.5047809804060961 20.8786346674678853 17.2124891681027847
 19.5047809804060961 20.8786346674678853 20.0974848353438986
 19.5047809804060961 20.8786346674678853 22.9824805025850125
 19.5047809804060961 20.8786346674678853 25.8674761698261264
 19.5047809804060961 20.8786346674678853 28.7524718370672403
 19.5047809804060961 20.8786346674678853 31.6374675043083542
 19.5047809804060961 20.8786346674678853 34.5224631715494681
 19.5047809804060961 20.8786346674678853 37.4074588387905820
 19.5047809804060961 20.8786346674678853 40.2924545060316959
 19.5047809804060961 20.8786346674678853 43.1774501732728098
 20.4124068001289913 18.0852496241915404 14.3274935008616708
 20.4124068001289913 18.0852496241915404 17.2124891681027847
 20.4124068001289913 18.0852496241915404 20.0974848353438986
 20.4124068001289913 18.0852496241915404 22.9824805025850125
 20.4124068001289913 18.0852496241915404 25.8674761698261264
 20.4124068001289913 18.0852496241915404 28.7524718370672403
 20.4124068001289913 18.0852496241915404 31.6374675043083542
 20.4124068001289913 18.0852496241915404 34.5224631715494681
 20.4124068001289913 18.0852496241915404 37.4074588387905820
 20.4124068001289913 18.0852496241915404 40.2924545060316959
 20.4124068001289913 18.0852496241915404 43.1774501732728098
 23.3495456508862453 18.0852496241915404 14.3274935008616708
 23.3495456508862453 18.0852496241915404 17.2124891681027847
 23.3495456508862453 18.0852496241915404 20.0974848353438986
 23.3495456508862453 18.0852496241915404 22.9824805025850125
 23.3495456508862453 18.0852496241915404 25.8674761698261264
 23.3495456508862453 18.0852496241915404 28.7524718370672403
 23.3495456508862453 18.0852496241915404 31.6374675043083542
 23.3495456508862453 18.0852496241915404 34.5224631715494681
 23.3495456508862453 18.0852496241915404 37.4074588387905820
 23.3495456508862453 18.0852496241915404 40.2924545060316959
 23.3495456508862453 18.0852496241915404 43.1774501732728098
 26.2866845016434993 18.0852496241915404 14.3274935008616708
 26.2866845016434993 18.0852496241915404 17.2124891681027847
 26.2866845016434993 18.0852496241915404 20.0974848353438986
 26.2866845016434993 18.0852496241915404 22.9824805025850125
 26.2866845016434993 18.0852496241915404 25.8674761698261264
 26.2866845016434993 18.0852496241915404 28.7524718370672403
 26.2866845016434993 18.0852496241915404 31.6374675043083542
 26.2866845016434993 18.0852496241915404 34.5224631715494681
 26.2866845016434993 18.0852496241915404 37.4074588387905820
 26.2866845016434993 18.0852496241915404 40.2924545060316959
 26.2866845016434993 18.0852496241915404 43.1774501732728098
 29.2238233524007569 18.0852496241915368 14.3274935008616708
 29.2238233524007569 18.0852496241915368 17.2124891681027847
 29.2238233524007569 18.0852496241915368 20.0974848353438986
 29.2238233524007569 18.0852496241915368 22.9824805025850125
 29.2238233524007569 18.0852496241915368 25.8674761698261264
 29.2238233524007569 18.0852496241915368 28.7524718370672403
 29.2238233524007569 18.0852496241915368 31.6374675043083542
 29.2238233524007569 18.0852496241915368 34.5224631715494681
 29.2238233524007569 18.0852496241915368 37.4074588387905820
 29.2238233524007569 18.0852496241915368 40.2924545060316959
 29.2238233524007569 18.0852496241915368 43.1774501732728098
 30.1314491721236521 20.8786346674678853 14.3274935008616708
 30.1314491721236521 20.8786346674678853 17.2124891681027847
 30.1314491721236521 20.8786346674678853 20.0974848353438986
 30.1314491721236521 20.8786346674678853 22.9824805025850125
 30.1314491721236521 20.8786346674678853 25.8674761698261264
 30.1314491721236521 20.8786346674678853 28.7524718370672403
 30.1314491721236521 20.8786346674678853 31.6374675043083542
 30.1314491721236521 20.8786346674678853 34.5224631715494681
 30.1314491721236521 20.8786346674678853 37.4074588387905820
 30.1314491721236521 20.8786346674678853 40.2924545060316959
 30.1314491721236521 20.8786346674678853 43.1774501732728098
 31.0390749918465474 23.6720197107442303 14.3274935008616708
 31.0390749918465474 23.6720197107442303 17.2124891681027847
 31.0390749918465474 23.6720197107442303 20.0974848353438986
 31.0390749918465474 23.6720197107442303 22.9824805025850125
 31.0390749918465474 23.6720197107442303 25.8674761698261264
 31.0390749918465474 23.6720197107442303 28.7524718370672403
 31.0390749918465474 23.6720197107442303 31.6374675043083542
 31.0390749918465474 23.6720197107442303 34.5224631715494681
 31.0390749918465474 23.6720197107442303 37.4074588387905820
 31.0390749918465474 23.6720197107442303 40.2924545060316959
 31.0390749918465474 23.6720197107442303 43.1774501732728098
 34.3228960566709631 27.2374773912490404 15.7699913344822278
 34.3228960566709631 27.2374773912490404 18.6549870017233417
 34.3228960566709631 27.2374773912490404 21.5399826689644556
 34.3228960566709631 27.2374773912490404 24.4249783362055695
 34.3228960566709631 27.2374773912490404 27.3099740034466834
 34.3228960566709631 27.2374773912490404 30.1949696706877972
 34.3228960566709631 27.2374773912490404 33.0799653379289111
 34.3228960566709631 27.2374773912490404 35.9649610051700250
 34.3228960566709631 27.2374773912490404 38.8499566724111389
 34.3228960566709631 27.2374773912490404 41.7349523396522528
 31.9467008115694426 28.9638842916594186 15.7699913344822278
 31.9467008115694426 28.9638842916594186 18.6549870017233417
 31.9467008115694426 28.9638842916594186 21.5399826689644556
 31.9467008115694426 28.9638842916594186 24.4249783362055695
 31.9467008115694426 28.9638842916594186 27.3099740034466834
 31.9467008115694426 28.9638842916594186 30.1949696706877972
 31.9467008115694426 28.9638842916594186 33.0799653379289111
 31.9467008115694426 28.9638842916594186 35.9649610051700250
 31.9467008115694426 28.9638842916594186 38.8499566724111389
 31.9467008115694426 28.9638842916594186 41.7349523396522528
 29.5705055664679186 30.6902911920698003 15.7699913344822278
 29.5705055664679186 30.6902911920698003 18.6549870017233417
 29.5705055664679186 30.6902911920698003 21.5399826689644556
 29.5705055664679186 30.6902911920698003 24.4249783362055695
 29.5705055664679186 30.6902911920698003 27.3099740034466834
 29.5705055664679186 30.6902911920698003 30.1949696706877972
 29.5705055664679186 30.6902911920698003 33.0799653379289111
 29.5705055664679186 30.6902911920698003 35.9649610051700250
 29.5705055664679186 30.6902911920698003 38.8499566724111389
 29.5705055664679186 30.6902911920698003 41.7349523396522528
 27.1943103213663981 32.4166980924801749 15.7699913344822278
 27.1943103213663981 32.4166980924801749 18.6549870017233417
 27.1943103213663981 32.4166980924801749 21.5399826689644556
 27.1943103213663981 32.4166980924801749 24.4249783362055695
 27.1943103213663981 32.4166980924801749 27.3099740034466834
 27.1943103213663981 32.4166980924801749 30.1949696706877972
 27.1943103213663981 32.4166980924801749 33.0799653379289111
 27.1943103213663981 32.4166980924801749 35.9649610051700250
 27.1943103213663981 32.4166980924801749 38.8499566724111389
 27.1943103213663981 32.4166980924801749 41.7349523396522528
 24.8181150762648741 34.1431049928905566 15.7699913344822278
 24.8181150762648741 34.1431049928905566 18.6549870017233417
 24.8181150762648741 34.1431049928905566 21.5399826689644556
 24.8181150762648741 34.1431049928905566 24.4249783362055695
 24.8181150762648741 34.1431049928905566 27.3099740034466834
 24.8181150762648741 34.1431049928905566 30.1949696706877972
 24.8181150762648741 34.1431049928905566 33.0799653379289111
 24.8181150762648741 34.1431049928905566 35.9649610051700250
 24.8181150762648741 34.1431049928905566 38.8499566724111389
 24.8181150762648741 34.1431049928905566 41.7349523396522528
 22.4419198311633536 32.4166980924801749 15.7699913344822278
 22.4419198311633536 32.4166980924801749 18.6549870017233417
 22.4419198311633536 32.4166980924801749 21.5399826689644556
 22.4419198311633536 32.4166980924801749 24.4249783362055695
 22.4419198311633536 32.4166980924801749 27.3099740034466834
 22.4419198311633536 32.4166980924801749 30.1949696706877972
 22.4419198311633536 32.4166980924801749 33.0799653379289111
 22.4419198311633536 32.4166980924801749 35.9649610051700250
 22.4419198311633536 32.4166980924801749 38.8499566724111389
 22.4419198311633536 32.4166980924801749 41.7349523396522528
 20.0657245860618296 30.6902911920698003 15.7699913344822278
 20.0657245860618296 30.6902911920698003 18.6549870017233417
 20.0657245860618296 30.6902911920698003 21.5399826689644556
 20.0657245860618296 30.6902911920698003 24.4249783362055695
 20.0657245860618296 30.6902911920698003 27.3099740034466834
 20.0657245860618296 30.6902911920698003 30.1949696706877972
 20.0657245860618296 30.6902911920698003 33.0799653379289111
 20.0657245860618296 30.6902911920698003 35.9649610051700250
 20.0657245860618296 30.6902911920698003 38.8499566724111389
 20.0657245860618296 30.6902911920698003 41.7349523396522528
 17.6895293409603056 28.9638842916594221 15.7699913344822278
 17.6895293409603056 28.9638842916594221 18.6549870017233417
 17.6895293409603056 28.9638842916594221 21.5399826689644556
 17.6895293409603056 28.9638842916594221 24.4249783362055695
 17.6895293409603056 28.9638842916594221 27.3099740034466834
 17.6895293409603056 28.9638842916594221 30.1949696706877972
 17.6895293409603056 28.9638842916594221 33.0799653379289111
 17.6895293409603056 28.9638842916594221 35.9649610051700250
 17.6895293409603056 28.9638842916594221 38.8499566724111389
 17.6895293409603056 28.9638842916594221 41.7349523396522528
 15.3133340958587834 27.2374773912490440 15.7699913344822278
 15.3133340958587834 27.2374773912490440 18.6549870017233417
 15.3133340958587834 27.2374773912490440 21.5399826689644556
 15.3133340958587834 27.2374773912490440 24.4249783362055695
 15.3133340958587834 27.2374773912490440 27.3099740034466834
 15.3133340958587834 27.2374773912490440 30.1949696706877972
 15.3133340958587834 27.2374773912490440 33.0799653379289111
 15.3133340958587834 27.2374773912490440 35.9649610051700250
 15.3133340958587834 27.2374773912490440 38.8499566724111389
 15.3133340958587834 27.2374773912490440 41.7349523396522528
 16.2209599155816768 24.4440923479726955 15.7699913344822278
 16.2209599155816768 24.4440923479726955 18.6549870017233417
 16.2209599155816768 24.4440923479726955 21.5399826689644556
 16.2209599155816768 24.4440923479726955 24.4249783362055695
 16.2209599155816768 24.4440923479726955 27.3099740034466834
 16.2209599155816768 24.4440923479726955 30.1949696706877972
 16.2209599155816768 24.4440923479726955 33.0799653379289111
 16.2209599155816768 24.4440923479726955 35.9649610051700250
 16.2209599155816768 24.4440923479726955 38.8499566724111389
 16.2209599155816768 24.4440923479726955 41.7349523396522528
 17.1285857353045721 21.6507073046963505 15.7699913344822278
 17.1285857353045721 21.6507073046963505 18.6549870017233417
 17.1285857353045721 21.6507073046963505 21.5399826689644556
 17.1285857353045721 21.6507073046963505 24.4249783362055695
 17.1285857353045721 21.6507073046963505 27.3099740034466834
 17.1285857353045721 21.6507073046963505 30.1949696706877972
 17.1285857353045721 21.6507073046963505 33.0799653379289111
 17.1285857353045721 21.6507073046963505 35.9649610051700250
 17.1285857353045721 21.6507073046963505 38.8499566724111389
 17.1285857353045721 21.6507073046963505 41.7349523396522528
 18.0362115550274673 18.8573222614200020 15.7699913344822278
 18.0362115550274673 18.8573222614200020 18.6549870017233417
 18.0362115550274673 18.8573222614200020 21.5399826689644556
 18.0362115550274673 18.8573222614200020 24.4249783362055695
 18.0362115550274673 18.8573222614200020 27.3099740034466834
 18.0362115550274673 18.8573222614200020 30.1949696706877972
 18.0362115550274673 18.8573222614200020 33.0799653379289111
 18.0362115550274673 18.8573222614200020 35.9649610051700250
 18.0362115550274673 18.8573222614200020 38.8499566724111389
 18.0362115550274673 18.8573222614200020 41.7349523396522528
 18.9438373747503590 16.0639372181436570 15.7699913344822278
 18.9438373747503590 16.0639372181436570 18.6549870017233417
 18.9438373747503590 16.0639372181436570 21.5399826689644556