Au 
 1.0000000000000000
    39.0095619608121780    0.0000000000000000    0.0000000000000000
     0.0000000000000000   38.0791677747469066    0.0000000000000000
     0.0000000000000000    0.0000000000000000   37.3099740034466834
 Au 
 207
Cartesian
 19.5047809804060890 18.0852496241915404 10.0000000000000000
 19.5047809804060890 18.0852496241915404 12.8849956672411139
 19.5047809804060890 18.0852496241915404 15.7699913344822278
 19.5047809804060890 18.0852496241915404 18.6549870017233417
 19.5047809804060890 18.0852496241915404 21.5399826689644556
 19.5047809804060890 18.0852496241915404 24.4249783362055695
 19.5047809804060890 18.0852496241915404 27.3099740034466834
 21.8809762255076130 18.8573222614200020 11.4424978336205569
 21.8809762255076130 18.8573222614200020 14.3274935008616708
 21.8809762255076130 18.8573222614200020 17.2124891681027847
 21.8809762255076130 18.8573222614200020 20.0974848353438986
 21.8809762255076130 18.8573222614200020 22.9824805025850125
 21.8809762255076130 18.8573222614200020 25.8674761698261264
 19.5047809804060890 20.5837291618303837 11.4424978336205569
 19.5047809804060890 20.5837291618303837 14.3274935008616708
 19.5047809804060890 20.5837291618303837 17.2124891681027847
 19.5047809804060890 20.5837291618303837 20.0974848353438986
 19.5047809804060890 20.5837291618303837 22.9824805025850125
 19.5047809804060890 20.5837291618303837 25.8674761698261264
 17.1285857353045650 18.8573222614200020 11.4424978336205569
 17.1285857353045650 18.8573222614200020 14.3274935008616708
 17.1285857353045650 18.8573222614200020 17.2124891681027847
 17.1285857353045650 18.8573222614200020 20.0974848353438986
 17.1285857353045650 18.8573222614200020 22.9824805025850125
 17.1285857353045650 18.8573222614200020 25.8674761698261264
 18.0362115550274602 16.0639372181436570 11.4424978336205569
 18.0362115550274602 16.0639372181436570 14.3274935008616708
 18.0362115550274602 16.0639372181436570 17.2124891681027847
 18.0362115550274602 16.0639372181436570 20.0974848353438986
 18.0362115550274602 16.0639372181436570 22.9824805025850125
 18.0362115550274602 16.0639372181436570 25.8674761698261264
 20.9733504057847178 16.0639372181436570 11.4424978336205569
 20.9733504057847178 16.0639372181436570 14.3274935008616708
 20.9733504057847178 16.0639372181436570 17.2124891681027847
 20.9733504057847178 16.0639372181436570 20.0974848353438986
 20.9733504057847178 16.0639372181436570 22.9824805025850125
 20.9733504057847178 16.0639372181436570 25.8674761698261264
 24.2571714706091335 19.6293948986484637 12.8849956672411139
 24.2571714706091335 19.6293948986484637 15.7699913344822278
 24.2571714706091335 19.6293948986484637 18.6549870017233417
 24.2571714706091335 19.6293948986484637 21.5399826689644556
 24.2571714706091335 19.6293948986484637 24.4249783362055695
 21.8809762255076130 21.3558017990588453 12.8849956672411139
 21.8809762255076130 21.3558017990588453 15.7699913344822278
 21.8809762255076130 21.3558017990588453 18.6549870017233417
 21.8809762255076130 21.3558017990588453 21.5399826689644556
 21.8809762255076130 21.3558017990588453 24.4249783362055695
 19.5047809804060890 23.0822086994692235 12.8849956672411139
 19.5047809804060890 23.0822086994692235 15.7699913344822278
 19.5047809804060890 23.0822086994692235 18.6549870017233417
 19.5047809804060890 23.0822086994692235 21.5399826689644556
 19.5047809804060890 23.0822086994692235 24.4249783362055695
 17.1285857353045650 21.3558017990588453 12.8849956672411139
 17.1285857353045650 21.3558017990588453 15.7699913344822278
 17.1285857353045650 21.3558017990588453 18.6549870017233417
 17.1285857353045650 21.3558017990588453 21.5399826689644556
 17.1285857353045650 21.3558017990588453 24.4249783362055695
 14.7523904902030445 19.6293948986484672 12.8849956672411139
 14.7523904902030445 19.6293948986484672 15.7699913344822278
 14.7523904902030445 19.6293948986484672 18.6549870017233417
 14.7523904902030445 19.6293948986484672 21.5399826689644556
 14.7523904902030445 19.6293948986484672 24.4249783362055695
 15.6600163099259380 16.8360098553721187 12.8849956672411139
 15.6600163099259380 16.8360098553721187 15.7699913344822278
 15.6600163099259380 16.8360098553721187 18.6549870017233417
 15.6600163099259380 16.8360098553721187 21.5399826689644556
 15.6600163099259380 16.8360098553721187 24.4249783362055695
 16.5676421296488314 14.0426248120957737 12.8849956672411139
 16.5676421296488314 14.0426248120957737 15.7699913344822278
 16.5676421296488314 14.0426248120957737 18.6549870017233417
 16.5676421296488314 14.0426248120957737 21.5399826689644556
 16.5676421296488314 14.0426248120957737 24.4249783362055695
 19.5047809804060890 14.0426248120957720 12.8849956672411139
 19.5047809804060890 14.0426248120957720 15.7699913344822278
 19.5047809804060890 14.0426248120957720 18.6549870017233417
 19.5047809804060890 14.0426248120957720 21.5399826689644556
 19.5047809804060890 14.0426248120957720 24.4249783362055695
 22.4419198311633430 14.0426248120957720 12.8849956672411139
 22.4419198311633430 14.0426248120957720 15.7699913344822278
 22.4419198311633430 14.0426248120957720 18.6549870017233417
 22.4419198311633430 14.0426248120957720 21.5399826689644556
 22.4419198311633430 14.0426248120957720 24.4249783362055695
 23.3495456508862382 16.8360098553721187 12.8849956672411139
 23.3495456508862382 16.8360098553721187 15.7699913344822278
 23.3495456508862382 16.8360098553721187 18.6549870017233417
 23.3495456508862382 16.8360098553721187 21.5399826689644556
 23.3495456508862382 16.8360098553721187 24.4249783362055695
 26.6333667157106575 20.4014675358769288 14.3274935008616708
 26.6333667157106575 20.4014675358769288 17.2124891681027847
 26.6333667157106575 20.4014675358769288 20.0974848353438986
 26.6333667157106575 20.4014675358769288 22.9824805025850125
 24.2571714706091335 22.1278744362873070 14.3274935008616708
 24.2571714706091335 22.1278744362873070 17.2124891681027847
 24.2571714706091335 22.1278744362873070 20.0974848353438986
 24.2571714706091335 22.1278744362873070 22.9824805025850125
 21.8809762255076130 23.8542813366976851 14.3274935008616708
 21.8809762255076130 23.8542813366976851 17.2124891681027847
 21.8809762255076130 23.8542813366976851 20.0974848353438986
 21.8809762255076130 23.8542813366976851 22.9824805025850125
 19.5047809804060890 25.5806882371080633 14.3274935008616708
 19.5047809804060890 25.5806882371080633 17.2124891681027847
 19.5047809804060890 25.5806882371080633 20.0974848353438986
 19.5047809804060890 25.5806882371080633 22.9824805025850125
 17.1285857353045685 23.8542813366976887 14.3274935008616708
 17.1285857353045685 23.8542813366976887 17.2124891681027847
 17.1285857353045685 23.8542813366976887 20.0974848353438986
 17.1285857353045685 23.8542813366976887 22.9824805025850125
 14.7523904902030445 22.1278744362873070 14.3274935008616708
 14.7523904902030445 22.1278744362873070 17.2124891681027847
 14.7523904902030445 22.1278744362873070 20.0974848353438986
 14.7523904902030445 22.1278744362873070 22.9824805025850125
 12.3761952451015205 20.4014675358769288 14.3274935008616708
 12.3761952451015205 20.4014675358769288 17.2124891681027847
 12.3761952451015205 20.4014675358769288 20.0974848353438986
 12.3761952451015205 20.4014675358769288 22.9824805025850125
 13.2838210648244157 17.6080824926005839 14.3274935008616708
 13.2838210648244157 17.6080824926005839 17.2124891681027847
 13.2838210648244157 17.6080824926005839 20.0974848353438986
 13.2838210648244157 17.6080824926005839 22.9824805025850125
 14.1914468845473092 14.8146974493242354 14.3274935008616708
 14.1914468845473092 14.8146974493242354 17.2124891681027847
 14.1914468845473092 14.8146974493242354 20.0974848353438986
 14.1914468845473092 14.8146974493242354 22.9824805025850125
 15.0990727042702044 12.0213124060478886 14.3274935008616708
 15.0990727042702044 12.0213124060478886 17.2124891681027847
 15.0990727042702044 12.0213124060478886 20.0974848353438986
 15.0990727042702044 12.0213124060478886 22.9824805025850125
 18.0362115550274602 12.0213124060478886 14.3274935008616708
 18.0362115550274602 12.0213124060478886 17.2124891681027847
 18.0362115550274602 12.0213124060478886 20.0974848353438986
 18.0362115550274602 12.0213124060478886 22.9824805025850125
 20.9733504057847142 12.0213124060478886 14.3274935008616708
 20.9733504057847142 12.0213124060478886 17.2124891681027847
 20.9733504057847142 12.0213124060478886 20.0974848353438986
 20.9733504057847142 12.0213124060478886 22.9824805025850125
 23.9104892565419718 12.0213124060478869 14.3274935008616708
 23.9104892565419718 12.0213124060478869 17.2124891681027847
 23.9104892565419718 12.0213124060478869 20.0974848353438986
 23.9104892565419718 12.0213124060478869 22.9824805025850125
 24.8181150762648670 14.8146974493242354 14.3274935008616708
 24.8181150762648670 14.8146974493242354 17.2124891681027847
 24.8181150762648670 14.8146974493242354 20.0974848353438986
 24.8181150762648670 14.8146974493242354 22.9824805025850125
 25.7257408959877623 17.6080824926005803 14.3274935008616708
 25.7257408959877623 17.6080824926005803 17.2124891681027847
 25.7257408959877623 17.6080824926005803 20.0974848353438986
 25.7257408959877623 17.6080824926005803 22.9824805025850125
 29.0095619608121780 21.1735401731053905 15.7699913344822278
 29.0095619608121780 21.1735401731053905 18.6549870017233417
 29.0095619608121780 21.1735401731053905 21.5399826689644556
 26.6333667157106575 22.8999470735157686 15.7699913344822278
 26.6333667157106575 22.8999470735157686 18.6549870017233417
 26.6333667157106575 22.8999470735157686 21.5399826689644556
 24.2571714706091335 24.6263539739261503 15.7699913344822278
 24.2571714706091335 24.6263539739261503 18.6549870017233417
 24.2571714706091335 24.6263539739261503 21.5399826689644556
 21.8809762255076130 26.3527608743365285 15.7699913344822278
 21.8809762255076130 26.3527608743365285 18.6549870017233417
 21.8809762255076130 26.3527608743365285 21.5399826689644556
 19.5047809804060890 28.0791677747469066 15.7699913344822278
 19.5047809804060890 28.0791677747469066 18.6549870017233417
 19.5047809804060890 28.0791677747469066 21.5399826689644556
 17.1285857353045685 26.3527608743365285 15.7699913344822278
 17.1285857353045685 26.3527608743365285 18.6549870017233417
 17.1285857353045685 26.3527608743365285 21.5399826689644556
 14.7523904902030445 24.6263539739261503 15.7699913344822278
 14.7523904902030445 24.6263539739261503 18.6549870017233417
 14.7523904902030445 24.6263539739261503 21.5399826689644556
 12.3761952451015205 22.8999470735157722 15.7699913344822278
 12.3761952451015205 22.8999470735157722 18.6549870017233417
 12.3761952451015205 22.8999470735157722 21.5399826689644556
  9.9999999999999982 21.1735401731053940 15.7699913344822278
  9.9999999999999982 21.1735401731053940 18.6549870017233417
  9.9999999999999982 21.1735401731053940 21.5399826689644556
 10.9076258197228917 18.3801551298290455 15.7699913344822278
 10.9076258197228917 18.3801551298290455 18.6549870017233417
 10.9076258197228917 18.3801551298290455 21.5399826689644556
 11.8152516394457869 15.5867700865527006 15.7699913344822278
 11.8152516394457869 15.5867700865527006 18.6549870017233417
 11.8152516394457869 15.5867700865527006 21.5399826689644556
 12.7228774591686822 12.7933850432763521 15.7699913344822278
 12.7228774591686822 12.7933850432763521 18.6549870017233417
 12.7228774591686822 12.7933850432763521 21.5399826689644556
 13.6305032788915756 10.0000000000000053 15.7699913344822278
 13.6305032788915756 10.0000000000000053 18.6549870017233417
 13.6305032788915756 10.0000000000000053 21.5399826689644556
 16.5676421296488314 10.0000000000000036 15.7699913344822278
 16.5676421296488314 10.0000000000000036 18.6549870017233417
 16.5676421296488314 10.0000000000000036 21.5399826689644556
 19.5047809804060890 10.0000000000000036 15.7699913344822278
 19.5047809804060890 10.0000000000000036 18.6549870017233417
 19.5047809804060890 10.0000000000000036 21.5399826689644556
 22.4419198311633430 10.0000000000000036 15.7699913344822278
 22.4419198311633430 10.0000000000000036 18.6549870017233417
 22.4419198311633430 10.0000000000000036 21.5399826689644556
 25.3790586819206005 10.0000000000000036 15.7699913344822278
 25.3790586819206005 10.0000000000000036 18.6549870017233417
 25.3790586819206005 10.0000000000000036 21.5399826689644556
 26.2866845016434922 12.7933850432763503 15.7699913344822278
 26.2866845016434922 12.7933850432763503 18.6549870017233417
 26.2866845016434922 12.7933850432763503 21.5399826689644556
 27.1943103213663875 15.5867700865526970 15.7699913344822278
 27.1943103213663875 15.5867700865526970 18.6549870017233417
 27.1943103213663875 15.5867700865526970 21.5399826689644556
 28.1019361410892827 18.3801551298290420 15.7699913344822278
 28.1019361410892827 18.3801551298290420 18.6549870017233417
 28.1019361410892827 18.3801551298290420 21.5399826689644556
