Pt 
 1.0000000000000000
    34.1473024617774712    0.0000000000000000    0.0000000000000000
     0.0000000000000000   34.1473024617774712    0.0000000000000000
     0.0000000000000000    0.0000000000000000   34.1473024617774712
 Pt 
 147
Cartesian
 17.0736512308887356 17.0736512308887356 17.0736512308887356
 19.4315349745183141 17.0736512308887356 15.6163989358048134
 19.4315349745183141 17.0736512308887356 18.5309035259726578
 14.7157674872591571 17.0736512308887356 15.6163989358048134
 14.7157674872591571 17.0736512308887356 18.5309035259726578
 15.6163989358048134 19.4315349745183141 17.0736512308887356
 18.5309035259726578 19.4315349745183141 17.0736512308887356
 15.6163989358048134 14.7157674872591571 17.0736512308887356
 18.5309035259726578 14.7157674872591571 17.0736512308887356
 17.0736512308887356 15.6163989358048134 19.4315349745183141
 17.0736512308887356 18.5309035259726578 19.4315349745183141
 17.0736512308887356 15.6163989358048134 14.7157674872591571
 17.0736512308887356 18.5309035259726578 14.7157674872591571
 21.7894187181478927 17.0736512308887356 14.1591466407208895
 21.7894187181478927 17.0736512308887356 17.0736512308887356
 21.7894187181478927 17.0736512308887356 19.9881558210565800
 12.3578837436295785 17.0736512308887356 14.1591466407208895
 12.3578837436295785 17.0736512308887356 17.0736512308887356
 12.3578837436295785 17.0736512308887356 19.9881558210565800
 14.1591466407208895 21.7894187181478927 17.0736512308887356
 17.0736512308887356 21.7894187181478927 17.0736512308887356
 19.9881558210565800 21.7894187181478927 17.0736512308887356
 14.1591466407208895 12.3578837436295785 17.0736512308887356
 17.0736512308887356 12.3578837436295785 17.0736512308887356
 19.9881558210565800 12.3578837436295785 17.0736512308887356
 17.0736512308887356 14.1591466407208895 21.7894187181478927
 17.0736512308887356 17.0736512308887356 21.7894187181478927
 17.0736512308887356 19.9881558210565800 21.7894187181478927
 17.0736512308887356 14.1591466407208895 12.3578837436295785
 17.0736512308887356 17.0736512308887356 12.3578837436295785
 17.0736512308887356 19.9881558210565800 12.3578837436295785
 19.4315349745183141 15.6163989358048134 20.8887872696022363
 19.4315349745183141 18.5309035259726578 20.8887872696022363
 19.4315349745183141 15.6163989358048134 13.2585151921752331
 19.4315349745183141 18.5309035259726578 13.2585151921752331
 14.7157674872591571 15.6163989358048134 20.8887872696022363
 14.7157674872591571 18.5309035259726578 20.8887872696022363
 14.7157674872591571 15.6163989358048134 13.2585151921752331
 14.7157674872591571 18.5309035259726578 13.2585151921752331
 20.8887872696022363 19.4315349745183141 15.6163989358048134
 20.8887872696022363 19.4315349745183141 18.5309035259726578
 13.2585151921752331 19.4315349745183141 15.6163989358048134
 13.2585151921752331 19.4315349745183141 18.5309035259726578
 20.8887872696022363 14.7157674872591571 15.6163989358048134
 20.8887872696022363 14.7157674872591571 18.5309035259726578
 13.2585151921752331 14.7157674872591571 15.6163989358048134
 13.2585151921752331 14.7157674872591571 18.5309035259726578
 15.6163989358048134 20.8887872696022363 19.4315349745183141
 18.5309035259726578 20.8887872696022363 19.4315349745183141
 15.6163989358048134 13.2585151921752331 19.4315349745183141
 18.5309035259726578 13.2585151921752331 19.4315349745183141
 15.6163989358048134 20.8887872696022363 14.7157674872591571
 18.5309035259726578 20.8887872696022363 14.7157674872591571
 15.6163989358048134 13.2585151921752331 14.7157674872591571
 18.5309035259726578 13.2585151921752331 14.7157674872591571
 24.1473024617774712 17.0736512308887356 12.7018943456369655
 24.1473024617774712 17.0736512308887356 15.6163989358048134
 24.1473024617774712 17.0736512308887356 18.5309035259726578
 24.1473024617774712 17.0736512308887356 21.4454081161405057
 10.0000000000000000 17.0736512308887356 12.7018943456369655
 10.0000000000000000 17.0736512308887356 15.6163989358048134
 10.0000000000000000 17.0736512308887356 18.5309035259726578
 10.0000000000000000 17.0736512308887356 21.4454081161405057
 12.7018943456369655 24.1473024617774712 17.0736512308887356
 15.6163989358048134 24.1473024617774712 17.0736512308887356
 18.5309035259726578 24.1473024617774712 17.0736512308887356
 21.4454081161405057 24.1473024617774712 17.0736512308887356
 12.7018943456369655 10.0000000000000000 17.0736512308887356
 15.6163989358048134 10.0000000000000000 17.0736512308887356
 18.5309035259726578 10.0000000000000000 17.0736512308887356
 21.4454081161405057 10.0000000000000000 17.0736512308887356
 17.0736512308887356 12.7018943456369655 24.1473024617774712
 17.0736512308887356 15.6163989358048134 24.1473024617774712
 17.0736512308887356 18.5309035259726578 24.1473024617774712
 17.0736512308887356 21.4454081161405057 24.1473024617774712
 17.0736512308887356 12.7018943456369655 10.0000000000000000
 17.0736512308887356 15.6163989358048134 10.0000000000000000
 17.0736512308887356 18.5309035259726578 10.0000000000000000
 17.0736512308887356 21.4454081161405057 10.0000000000000000
 21.7894187181478927 15.6163989358048134 22.3460395646861585
 19.4315349745183141 14.1591466407208895 23.2466710132318184
 21.7894187181478927 18.5309035259726578 22.3460395646861585
 19.4315349745183141 17.0736512308887356 23.2466710132318184
 19.4315349745183141 19.9881558210565800 23.2466710132318184
 21.7894187181478927 15.6163989358048134 11.8012628970913109
 19.4315349745183141 14.1591466407208895 10.9006314485456546
 21.7894187181478927 18.5309035259726578 11.8012628970913109
 19.4315349745183141 17.0736512308887356 10.9006314485456546
 19.4315349745183141 19.9881558210565800 10.9006314485456546
 12.3578837436295785 15.6163989358048134 22.3460395646861585
 14.7157674872591571 14.1591466407208895 23.2466710132318184
 12.3578837436295785 18.5309035259726578 22.3460395646861585
 14.7157674872591571 17.0736512308887356 23.2466710132318184
 14.7157674872591571 19.9881558210565800 23.2466710132318184
 12.3578837436295785 15.6163989358048134 11.8012628970913109
 14.7157674872591571 14.1591466407208895 10.9006314485456546
 12.3578837436295785 18.5309035259726578 11.8012628970913109
 14.7157674872591571 17.0736512308887356 10.9006314485456546
 14.7157674872591571 19.9881558210565800 10.9006314485456546
 22.3460395646861585 21.7894187181478927 15.6163989358048134
 23.2466710132318184 19.4315349745183141 14.1591466407208895
 22.3460395646861585 21.7894187181478927 18.5309035259726578
 23.2466710132318184 19.4315349745183141 17.0736512308887356
 23.2466710132318184 19.4315349745183141 19.9881558210565800
 11.8012628970913109 21.7894187181478927 15.6163989358048134
 10.9006314485456546 19.4315349745183141 14.1591466407208895
 11.8012628970913109 21.7894187181478927 18.5309035259726578
 10.9006314485456546 19.4315349745183141 17.0736512308887356
 10.9006314485456546 19.4315349745183141 19.9881558210565800
 22.3460395646861585 12.3578837436295785 15.6163989358048134
 23.2466710132318184 14.7157674872591571 14.1591466407208895
 22.3460395646861585 12.3578837436295785 18.5309035259726578
 23.2466710132318184 14.7157674872591571 17.0736512308887356
 23.2466710132318184 14.7157674872591571 19.9881558210565800
 11.8012628970913109 12.3578837436295785 15.6163989358048134
 10.9006314485456546 14.7157674872591571 14.1591466407208895
 11.8012628970913109 12.3578837436295785 18.5309035259726578
 10.9006314485456546 14.7157674872591571 17.0736512308887356
 10.9006314485456546 14.7157674872591571 19.9881558210565800
 15.6163989358048134 22.3460395646861585 21.7894187181478927
 14.1591466407208895 23.2466710132318184 19.4315349745183141
 18.5309035259726578 22.3460395646861585 21.7894187181478927
 17.0736512308887356 23.2466710132318184 19.4315349745183141
 19.9881558210565800 23.2466710132318184 19.4315349745183141
 15.6163989358048134 11.8012628970913109 21.7894187181478927
 14.1591466407208895 10.9006314485456546 19.4315349745183141
 18.5309035259726578 11.8012628970913109 21.7894187181478927
 17.0736512308887356 10.9006314485456546 19.4315349745183141
 19.9881558210565800 10.9006314485456546 19.4315349745183141
 15.6163989358048134 22.3460395646861585 12.3578837436295785
 14.1591466407208895 23.2466710132318184 14.7157674872591571
 18.5309035259726578 22.3460395646861585 12.3578837436295785
 17.0736512308887356 23.2466710132318184 14.7157674872591571
 19.9881558210565800 23.2466710132318184 14.7157674872591571
 15.6163989358048134 11.8012628970913109 12.3578837436295785
 14.1591466407208895 10.9006314485456546 14.7157674872591571
 18.5309035259726578 11.8012628970913109 12.3578837436295785
 17.0736512308887356 10.9006314485456546 14.7157674872591571
 19.9881558210565800 10.9006314485456546 14.7157674872591571
 20.8887872696022363 13.2585151921752331 20.8887872696022363
 20.8887872696022363 20.8887872696022363 20.8887872696022363
 20.8887872696022363 13.2585151921752331 13.2585151921752331
 20.8887872696022363 20.8887872696022363 13.2585151921752331
 13.2585151921752331 13.2585151921752331 20.8887872696022363
 13.2585151921752331 20.8887872696022363 20.8887872696022363
 13.2585151921752331 13.2585151921752331 13.2585151921752331
 13.2585151921752331 20.8887872696022363 13.2585151921752331
