Pt 
 1.0000000000000000
    33.6980667070558368    0.0000000000000000    0.0000000000000000
     0.0000000000000000   33.0276356023911504    0.0000000000000000
     0.0000000000000000    0.0000000000000000   28.3155757467538010
 Pt 
  54
Cartesian
 16.8490333535279184 15.8261357586086078 10.0000000000000000
 16.8490333535279184 15.8261357586086078 12.7718585822512676
 16.8490333535279184 15.8261357586086078 15.5437171645025334
 16.8490333535279184 15.8261357586086078 18.3155757467538010
 19.1320444713705591 16.5679310375143842 11.3859292911256347
 19.1320444713705591 16.5679310375143842 14.1577878733769005
 19.1320444713705591 16.5679310375143842 16.9296464556281663
 16.8490333535279184 18.2266357065361220 11.3859292911256347
 16.8490333535279184 18.2266357065361220 14.1577878733769005
 16.8490333535279184 18.2266357065361220 16.9296464556281663
 14.5660222356852795 16.5679310375143878 11.3859292911256347
 14.5660222356852795 16.5679310375143878 14.1577878733769005
 14.5660222356852795 16.5679310375143878 16.9296464556281663
 15.4380548860072757 13.8840905057390724 11.3859292911256347
 15.4380548860072757 13.8840905057390724 14.1577878733769005
 15.4380548860072757 13.8840905057390724 16.9296464556281663
 18.2600118210485611 13.8840905057390724 11.3859292911256347
 18.2600118210485611 13.8840905057390724 14.1577878733769005
 18.2600118210485611 13.8840905057390724 16.9296464556281663
 21.4150555892131962 17.3097263164201642 12.7718585822512676
 21.4150555892131962 17.3097263164201642 15.5437171645025334
 19.1320444713705591 18.9684309854418984 12.7718585822512676
 19.1320444713705591 18.9684309854418984 15.5437171645025334
 16.8490333535279184 20.6271356544636362 12.7718585822512676
 16.8490333535279184 20.6271356544636362 15.5437171645025334
 14.5660222356852795 18.9684309854418984 12.7718585822512676
 14.5660222356852795 18.9684309854418984 15.5437171645025334
 12.2830111178426407 17.3097263164201642 12.7718585822512676
 12.2830111178426407 17.3097263164201642 15.5437171645025334
 13.1550437681646351 14.6258857846448507 12.7718585822512676
 13.1550437681646351 14.6258857846448507 15.5437171645025334
 14.0270764184866330 11.9420452528695371 12.7718585822512676
 14.0270764184866330 11.9420452528695371 15.5437171645025334
 16.8490333535279184 11.9420452528695371 12.7718585822512676
 16.8490333535279184 11.9420452528695371 15.5437171645025334
 19.6709902885692038 11.9420452528695371 12.7718585822512676
 19.6709902885692038 11.9420452528695371 15.5437171645025334
 20.5430229388911982 14.6258857846448507 12.7718585822512676
 20.5430229388911982 14.6258857846448507 15.5437171645025334
 23.6980667070558368 18.0515215953259407 14.1577878733769005
 21.4150555892131962 19.7102262643476784 14.1577878733769005
 19.1320444713705591 21.3689309333694126 14.1577878733769005
 16.8490333535279184 23.0276356023911504 14.1577878733769005
 14.5660222356852795 21.3689309333694126 14.1577878733769005
 12.2830111178426407 19.7102262643476784 14.1577878733769005
 10.0000000000000000 18.0515215953259442 14.1577878733769005
 10.8720326503219979 15.3676810635506289 14.1577878733769005
 11.7440653006439923 12.6838405317753171 14.1577878733769005
 12.6160979509659903 10.0000000000000036 14.1577878733769005
 15.4380548860072739 10.0000000000000018 14.1577878733769005
 18.2600118210485611 10.0000000000000000 14.1577878733769005
 21.0819687560898430 10.0000000000000000 14.1577878733769005
 21.9540014064118409 12.6838405317753136 14.1577878733769005
 22.8260340567338389 15.3676810635506271 14.1577878733769005
