Au 
 1.0000000000000000
    60.2628983442473043    0.0000000000000000    0.0000000000000000
     0.0000000000000000   58.2922918352257398    0.0000000000000000
     0.0000000000000000    0.0000000000000000   48.8499566724111389
 Au 
 961
Cartesian
 30.1314491721236521 30.2131240604788367 10.0000000000000000
 30.1314491721236521 30.2131240604788367 12.8849956672411139
 30.1314491721236521 30.2131240604788367 15.7699913344822278
 30.1314491721236521 30.2131240604788367 18.6549870017233417
 30.1314491721236521 30.2131240604788367 21.5399826689644556
 30.1314491721236521 30.2131240604788367 24.4249783362055695
 30.1314491721236521 30.2131240604788367 27.3099740034466834
 30.1314491721236521 30.2131240604788367 30.1949696706877972
 30.1314491721236521 30.2131240604788367 33.0799653379289111
 30.1314491721236521 30.2131240604788367 35.9649610051700250
 30.1314491721236521 30.2131240604788367 38.8499566724111389
 32.5076444172251726 30.9851966977072983 11.4424978336205569
 32.5076444172251726 30.9851966977072983 14.3274935008616708
 32.5076444172251726 30.9851966977072983 17.2124891681027847
 32.5076444172251726 30.9851966977072983 20.0974848353438986
 32.5076444172251726 30.9851966977072983 22.9824805025850125
 32.5076444172251726 30.9851966977072983 25.8674761698261264
 32.5076444172251726 30.9851966977072983 28.7524718370672403
 32.5076444172251726 30.9851966977072983 31.6374675043083542
 32.5076444172251726 30.9851966977072983 34.5224631715494681
 32.5076444172251726 30.9851966977072983 37.4074588387905820
 30.1314491721236521 32.7116035981176765 11.4424978336205569
 30.1314491721236521 32.7116035981176765 14.3274935008616708
 30.1314491721236521 32.7116035981176765 17.2124891681027847
 30.1314491721236521 32.7116035981176765 20.0974848353438986
 30.1314491721236521 32.7116035981176765 22.9824805025850125
 30.1314491721236521 32.7116035981176765 25.8674761698261264
 30.1314491721236521 32.7116035981176765 28.7524718370672403
 30.1314491721236521 32.7116035981176765 31.6374675043083542
 30.1314491721236521 32.7116035981176765 34.5224631715494681
 30.1314491721236521 32.7116035981176765 37.4074588387905820
 27.7552539270221281 30.9851966977072983 11.4424978336205569
 27.7552539270221281 30.9851966977072983 14.3274935008616708
 27.7552539270221281 30.9851966977072983 17.2124891681027847
 27.7552539270221281 30.9851966977072983 20.0974848353438986
 27.7552539270221281 30.9851966977072983 22.9824805025850125
 27.7552539270221281 30.9851966977072983 25.8674761698261264
 27.7552539270221281 30.9851966977072983 28.7524718370672403
 27.7552539270221281 30.9851966977072983 31.6374675043083542
 27.7552539270221281 30.9851966977072983 34.5224631715494681
 27.7552539270221281 30.9851966977072983 37.4074588387905820
 28.6628797467450234 28.1918116544309534 11.4424978336205569
 28.6628797467450234 28.1918116544309534 14.3274935008616708
 28.6628797467450234 28.1918116544309534 17.2124891681027847
 28.6628797467450234 28.1918116544309534 20.0974848353438986
 28.6628797467450234 28.1918116544309534 22.9824805025850125
 28.6628797467450234 28.1918116544309534 25.8674761698261264
 28.6628797467450234 28.1918116544309534 28.7524718370672403
 28.6628797467450234 28.1918116544309534 31.6374675043083542
 28.6628797467450234 28.1918116544309534 34.5224631715494681
 28.6628797467450234 28.1918116544309534 37.4074588387905820
 31.6000185975022809 28.1918116544309534 11.4424978336205569
 31.6000185975022809 28.1918116544309534 14.3274935008616708
 31.6000185975022809 28.1918116544309534 17.2124891681027847
 31.6000185975022809 28.1918116544309534 20.0974848353438986
 31.6000185975022809 28.1918116544309534 22.9824805025850125
 31.6000185975022809 28.1918116544309534 25.8674761698261264
 31.6000185975022809 28.1918116544309534 28.7524718370672403
 31.6000185975022809 28.1918116544309534 31.6374675043083542
 31.6000185975022809 28.1918116544309534 34.5224631715494681
 31.6000185975022809 28.1918116544309534 37.4074588387905820
 34.8838396623267002 31.7572693349357635 12.8849956672411139
 34.8838396623267002 31.7572693349357635 15.7699913344822278
 34.8838396623267002 31.7572693349357635 18.6549870017233417
 34.8838396623267002 31.7572693349357635 21.5399826689644556
 34.8838396623267002 31.7572693349357635 24.4249783362055695
 34.8838396623267002 31.7572693349357635 27.3099740034466834
 34.8838396623267002 31.7572693349357635 30.1949696706877972
 34.8838396623267002 31.7572693349357635 33.0799653379289111
 34.8838396623267002 31.7572693349357635 35.9649610051700250
 32.5076444172251726 33.4836762353461381 12.8849956672411139
 32.5076444172251726 33.4836762353461381 15.7699913344822278
 32.5076444172251726 33.4836762353461381 18.6549870017233417
 32.5076444172251726 33.4836762353461381 21.5399826689644556
 32.5076444172251726 33.4836762353461381 24.4249783362055695
 32.5076444172251726 33.4836762353461381 27.3099740034466834
 32.5076444172251726 33.4836762353461381 30.1949696706877972
 32.5076444172251726 33.4836762353461381 33.0799653379289111
 32.5076444172251726 33.4836762353461381 35.9649610051700250
 30.1314491721236521 35.2100831357565198 12.8849956672411139
 30.1314491721236521 35.2100831357565198 15.7699913344822278
 30.1314491721236521 35.2100831357565198 18.6549870017233417
 30.1314491721236521 35.2100831357565198 21.5399826689644556
 30.1314491721236521 35.2100831357565198 24.4249783362055695
 30.1314491721236521 35.2100831357565198 27.3099740034466834
 30.1314491721236521 35.2100831357565198 30.1949696706877972
 30.1314491721236521 35.2100831357565198 33.0799653379289111
 30.1314491721236521 35.2100831357565198 35.9649610051700250
 27.7552539270221281 33.4836762353461381 12.8849956672411139
 27.7552539270221281 33.4836762353461381 15.7699913344822278
 27.7552539270221281 33.4836762353461381 18.6549870017233417
 27.7552539270221281 33.4836762353461381 21.5399826689644556
 27.7552539270221281 33.4836762353461381 24.4249783362055695
 27.7552539270221281 33.4836762353461381 27.3099740034466834
 27.7552539270221281 33.4836762353461381 30.1949696706877972
 27.7552539270221281 33.4836762353461381 33.0799653379289111
 27.7552539270221281 33.4836762353461381 35.9649610051700250
 25.3790586819206077 31.7572693349357635 12.8849956672411139
 25.3790586819206077 31.7572693349357635 15.7699913344822278
 25.3790586819206077 31.7572693349357635 18.6549870017233417
 25.3790586819206077 31.7572693349357635 21.5399826689644556
 25.3790586819206077 31.7572693349357635 24.4249783362055695
 25.3790586819206077 31.7572693349357635 27.3099740034466834
 25.3790586819206077 31.7572693349357635 30.1949696706877972
 25.3790586819206077 31.7572693349357635 33.0799653379289111
 25.3790586819206077 31.7572693349357635 35.9649610051700250
 26.2866845016434993 28.9638842916594150 12.8849956672411139
 26.2866845016434993 28.9638842916594150 15.7699913344822278
 26.2866845016434993 28.9638842916594150 18.6549870017233417
 26.2866845016434993 28.9638842916594150 21.5399826689644556
 26.2866845016434993 28.9638842916594150 24.4249783362055695
 26.2866845016434993 28.9638842916594150 27.3099740034466834
 26.2866845016434993 28.9638842916594150 30.1949696706877972
 26.2866845016434993 28.9638842916594150 33.0799653379289111
 26.2866845016434993 28.9638842916594150 35.9649610051700250
 27.1943103213663946 26.1704992483830701 12.8849956672411139
 27.1943103213663946 26.1704992483830701 15.7699913344822278
 27.1943103213663946 26.1704992483830701 18.6549870017233417
 27.1943103213663946 26.1704992483830701 21.5399826689644556
 27.1943103213663946 26.1704992483830701 24.4249783362055695
 27.1943103213663946 26.1704992483830701 27.3099740034466834
 27.1943103213663946 26.1704992483830701 30.1949696706877972
 27.1943103213663946 26.1704992483830701 33.0799653379289111
 27.1943103213663946 26.1704992483830701 35.9649610051700250
 30.1314491721236521 26.1704992483830665 12.8849956672411139
 30.1314491721236521 26.1704992483830665 15.7699913344822278
 30.1314491721236521 26.1704992483830665 18.6549870017233417
 30.1314491721236521 26.1704992483830665 21.5399826689644556
 30.1314491721236521 26.1704992483830665 24.4249783362055695
 30.1314491721236521 26.1704992483830665 27.3099740034466834
 30.1314491721236521 26.1704992483830665 30.1949696706877972
 30.1314491721236521 26.1704992483830665 33.0799653379289111
 30.1314491721236521 26.1704992483830665 35.9649610051700250
 33.0685880228809097 26.1704992483830665 12.8849956672411139
 33.0685880228809097 26.1704992483830665 15.7699913344822278
 33.0685880228809097 26.1704992483830665 18.6549870017233417
 33.0685880228809097 26.1704992483830665 21.5399826689644556
 33.0685880228809097 26.1704992483830665 24.4249783362055695
 33.0685880228809097 26.1704992483830665 27.3099740034466834
 33.0685880228809097 26.1704992483830665 30.1949696706877972
 33.0685880228809097 26.1704992483830665 33.0799653379289111
 33.0685880228809097 26.1704992483830665 35.9649610051700250
 33.9762138426038049 28.9638842916594150 12.8849956672411139
 33.9762138426038049 28.9638842916594150 15.7699913344822278
 33.9762138426038049 28.9638842916594150 18.6549870017233417
 33.9762138426038049 28.9638842916594150 21.5399826689644556
 33.9762138426038049 28.9638842916594150 24.4249783362055695
 33.9762138426038049 28.9638842916594150 27.3099740034466834
 33.9762138426038049 28.9638842916594150 30.1949696706877972
 33.9762138426038049 28.9638842916594150 33.0799653379289111
 33.9762138426038049 28.9638842916594150 35.9649610051700250
 37.2600349074282207 32.5293419721642252 14.3274935008616708
 37.2600349074282207 32.5293419721642252 17.2124891681027847
 37.2600349074282207 32.5293419721642252 20.0974848353438986
 37.2600349074282207 32.5293419721642252 22.9824805025850125
 37.2600349074282207 32.5293419721642252 25.8674761698261264
 37.2600349074282207 32.5293419721642252 28.7524718370672403
 37.2600349074282207 32.5293419721642252 31.6374675043083542
 37.2600349074282207 32.5293419721642252 34.5224631715494681
 34.8838396623267002 34.2557488725745998 14.3274935008616708
 34.8838396623267002 34.2557488725745998 17.2124891681027847
 34.8838396623267002 34.2557488725745998 20.0974848353438986
 34.8838396623267002 34.2557488725745998 22.9824805025850125
 34.8838396623267002 34.2557488725745998 25.8674761698261264
 34.8838396623267002 34.2557488725745998 28.7524718370672403
 34.8838396623267002 34.2557488725745998 31.6374675043083542
 34.8838396623267002 34.2557488725745998 34.5224631715494681
 32.5076444172251726 35.9821557729849815 14.3274935008616708
 32.5076444172251726 35.9821557729849815 17.2124891681027847
 32.5076444172251726 35.9821557729849815 20.0974848353438986
 32.5076444172251726 35.9821557729849815 22.9824805025850125
 32.5076444172251726 35.9821557729849815 25.8674761698261264
 32.5076444172251726 35.9821557729849815 28.7524718370672403
 32.5076444172251726 35.9821557729849815 31.6374675043083542
 32.5076444172251726 35.9821557729849815 34.5224631715494681
 30.1314491721236521 37.7085626733953632 14.3274935008616708
 30.1314491721236521 37.7085626733953632 17.2124891681027847
 30.1314491721236521 37.7085626733953632 20.0974848353438986
 30.1314491721236521 37.7085626733953632 22.9824805025850125
 30.1314491721236521 37.7085626733953632 25.8674761698261264
 30.1314491721236521 37.7085626733953632 28.7524718370672403
 30.1314491721236521 37.7085626733953632 31.6374675043083542
 30.1314491721236521 37.7085626733953632 34.5224631715494681
 27.7552539270221317 35.9821557729849815 14.3274935008616708
 27.7552539270221317 35.9821557729849815 17.2124891681027847
 27.7552539270221317 35.9821557729849815 20.0974848353438986
 27.7552539270221317 35.9821557729849815 22.9824805025850125
 27.7552539270221317 35.9821557729849815 25.8674761698261264
 27.7552539270221317 35.9821557729849815 28.7524718370672403
 27.7552539270221317 35.9821557729849815 31.6374675043083542
 27.7552539270221317 35.9821557729849815 34.5224631715494681
 25.3790586819206077 34.2557488725746069 14.3274935008616708
 25.3790586819206077 34.2557488725746069 17.2124891681027847
 25.3790586819206077 34.2557488725746069 20.0974848353438986
 25.3790586819206077 34.2557488725746069 22.9824805025850125
 25.3790586819206077 34.2557488725746069 25.8674761698261264
 25.3790586819206077 34.2557488725746069 28.7524718370672403
 25.3790586819206077 34.2557488725746069 31.6374675043083542
 25.3790586819206077 34.2557488725746069 34.5224631715494681
 23.0028634368190836 32.5293419721642252 14.3274935008616708
 23.0028634368190836 32.5293419721642252 17.2124891681027847
 23.0028634368190836 32.5293419721642252 20.0974848353438986
 23.0028634368190836 32.5293419721642252 22.9824805025850125
 23.0028634368190836 32.5293419721642252 25.8674761698261264
 23.0028634368190836 32.5293419721642252 28.7524718370672403
 23.0028634368190836 32.5293419721642252 31.6374675043083542
 23.0028634368190836 32.5293419721642252 34.5224631715494681
 23.9104892565419789 29.7359569288878802 14.3274935008616708
 23.9104892565419789 29.7359569288878802 17.2124891681027847
 23.9104892565419789 29.7359569288878802 20.0974848353438986
 23.9104892565419789 29.7359569288878802 22.9824805025850125
 23.9104892565419789 29.7359569288878802 25.8674761698261264
 23.9104892565419789 29.7359569288878802 28.7524718370672403
 23.9104892565419789 29.7359569288878802 31.6374675043083542
 23.9104892565419789 29.7359569288878802 34.5224631715494681
 24.8181150762648741 26.9425718856115317 14.3274935008616708
 24.8181150762648741 26.9425718856115317 17.2124891681027847
 24.8181150762648741 26.9425718856115317 20.0974848353438986
 24.8181150762648741 26.9425718856115317 22.9824805025850125
 24.8181150762648741 26.9425718856115317 25.8674761698261264
 24.8181150762648741 26.9425718856115317 28.7524718370672403
 24.8181150762648741 26.9425718856115317 31.6374675043083542
 24.8181150762648741 26.9425718856115317 34.5224631715494681
 25.7257408959877694 24.1491868423351832 14.3274935008616708
 25.7257408959877694 24.1491868423351832 17.2124891681027847
 25.7257408959877694 24.1491868423351832 20.0974848353438986
 25.7257408959877694 24.1491868423351832 22.9824805025850125
 25.7257408959877694 24.1491868423351832 25.8674761698261264
 25.7257408959877694 24.1491868423351832 28.7524718370672403
 25.7257408959877694 24.1491868423351832 31.6374675043083542
 25.7257408959877694 24.1491868423351832 34.5224631715494681
 28.6628797467450234 24.1491868423351832 14.3274935008616708
 28.6628797467450234 24.1491868423351832 17.2124891681027847
 28.6628797467450234 24.1491868423351832 20.0974848353438986
 28.6628797467450234 24.1491868423351832 22.9824805025850125
 28.6628797467450234 24.1491868423351832 25.8674761698261264
 28.6628797467450234 24.1491868423351832 28.7524718370672403
 28.6628797467450234 24.1491868423351832 31.6374675043083542
 28.6628797467450234 24.1491868423351832 34.5224631715494681
 31.6000185975022774 24.1491868423351832 14.3274935008616708
 31.6000185975022774 24.1491868423351832 17.2124891681027847
 31.6000185975022774 24.1491868423351832 20.0974848353438986
 31.6000185975022774 24.1491868423351832 22.9824805025850125
 31.6000185975022774 24.1491868423351832 25.8674761698261264
 31.6000185975022774 24.1491868423351832 28.7524718370672403
 31.6000185975022774 24.1491868423351832 31.6374675043083542
 31.6000185975022774 24.1491868423351832 34.5224631715494681
 34.5371574482595349 24.1491868423351832 14.3274935008616708
 34.5371574482595349 24.1491868423351832 17.2124891681027847
 34.5371574482595349 24.1491868423351832 20.0974848353438986
 34.5371574482595349 24.1491868423351832 22.9824805025850125
 34.5371574482595349 24.1491868423351832 25.8674761698261264
 34.5371574482595349 24.1491868423351832 28.7524718370672403
 34.5371574482595349 24.1491868423351832 31.6374675043083542
 34.5371574482595349 24.1491868423351832 34.5224631715494681
 35.4447832679824302 26.9425718856115317 14.3274935008616708
 35.4447832679824302 26.9425718856115317 17.2124891681027847
 35.4447832679824302 26.9425718856115317 20.0974848353438986
 35.4447832679824302 26.9425718856115317 22.9824805025850125
 35.4447832679824302 26.9425718856115317 25.8674761698261264
 35.4447832679824302 26.9425718856115317 28.7524718370672403
 35.4447832679824302 26.9425718856115317 31.6374675043083542
 35.4447832679824302 26.9425718856115317 34.5224631715494681
 36.3524090877053254 29.7359569288878767 14.3274935008616708
 36.3524090877053254 29.7359569288878767 17.2124891681027847
 36.3524090877053254 29.7359569288878767 20.0974848353438986
 36.3524090877053254 29.7359569288878767 22.9824805025850125
 36.3524090877053254 29.7359569288878767 25.8674761698261264
 36.3524090877053254 29.7359569288878767 28.7524718370672403
 36.3524090877053254 29.7359569288878767 31.6374675043083542
 36.3524090877053254 29.7359569288878767 34.5224631715494681
 39.6362301525297411 33.3014146093926868 15.7699913344822278
 39.6362301525297411 33.3014146093926868 18.6549870017233417
 39.6362301525297411 33.3014146093926868 21.5399826689644556
 39.6362301525297411 33.3014146093926868 24.4249783362055695
 39.6362301525297411 33.3014146093926868 27.3099740034466834
 39.6362301525297411 33.3014146093926868 30.1949696706877972
 39.6362301525297411 33.3014146093926868 33.0799653379289111
 37.2600349074282207 35.0278215098030685 15.7699913344822278
 37.2600349074282207 35.0278215098030685 18.6549870017233417
 37.2600349074282207 35.0278215098030685 21.5399826689644556
 37.2600349074282207 35.0278215098030685 24.4249783362055695
 37.2600349074282207 35.0278215098030685 27.3099740034466834
 37.2600349074282207 35.0278215098030685 30.1949696706877972
 37.2600349074282207 35.0278215098030685 33.0799653379289111
 34.8838396623267002 36.7542284102134431 15.7699913344822278
 34.8838396623267002 36.7542284102134431 18.6549870017233417
 34.8838396623267002 36.7542284102134431 21.5399826689644556
 34.8838396623267002 36.7542284102134431 24.4249783362055695
 34.8838396623267002 36.7542284102134431 27.3099740034466834
 34.8838396623267002 36.7542284102134431 30.1949696706877972
 34.8838396623267002 36.7542284102134431 33.0799653379289111
 32.5076444172251726 38.4806353106238248 15.7699913344822278
 32.5076444172251726 38.4806353106238248 18.6549870017233417
 32.5076444172251726 38.4806353106238248 21.5399826689644556
 32.5076444172251726 38.4806353106238248 24.4249783362055695
 32.5076444172251726 38.4806353106238248 27.3099740034466834
 32.5076444172251726 38.4806353106238248 30.1949696706877972
 32.5076444172251726 38.4806353106238248 33.0799653379289111
 30.1314491721236521 40.2070422110342065 15.7699913344822278
 30.1314491721236521 40.2070422110342065 18.6549870017233417
 30.1314491721236521 40.2070422110342065 21.5399826689644556
 30.1314491721236521 40.2070422110342065 24.4249783362055695
 30.1314491721236521 40.2070422110342065 27.3099740034466834
 30.1314491721236521 40.2070422110342065 30.1949696706877972
 30.1314491721236521 40.2070422110342065 33.0799653379289111
 27.7552539270221317 38.4806353106238248 15.7699913344822278
 27.7552539270221317 38.4806353106238248 18.6549870017233417
 27.7552539270221317 38.4806353106238248 21.5399826689644556
 27.7552539270221317 38.4806353106238248 24.4249783362055695
 27.7552539270221317 38.4806353106238248 27.3099740034466834
 27.7552539270221317 38.4806353106238248 30.1949696706877972
 27.7552539270221317 38.4806353106238248 33.0799653379289111
 25.3790586819206077 36.7542284102134431 15.7699913344822278
 25.3790586819206077 36.7542284102134431 18.6549870017233417
 25.3790586819206077 36.7542284102134431 21.5399826689644556
 25.3790586819206077 36.7542284102134431 24.4249783362055695
 25.3790586819206077 36.7542284102134431 27.3099740034466834
 25.3790586819206077 36.7542284102134431 30.1949696706877972
 25.3790586819206077 36.7542284102134431 33.0799653379289111
 23.0028634368190836 35.0278215098030685 15.7699913344822278
 23.0028634368190836 35.0278215098030685 18.6549870017233417
 23.0028634368190836 35.0278215098030685 21.5399826689644556
 23.0028634368190836 35.0278215098030685 24.4249783362055695
 23.0028634368190836 35.0278215098030685 27.3099740034466834
 23.0028634368190836 35.0278215098030685 30.1949696706877972
 23.0028634368190836 35.0278215098030685 33.0799653379289111
 20.6266681917175632 33.3014146093926868 15.7699913344822278
 20.6266681917175632 33.3014146093926868 18.6549870017233417
 20.6266681917175632 33.3014146093926868 21.5399826689644556
 20.6266681917175632 33.3014146093926868 24.4249783362055695
 20.6266681917175632 33.3014146093926868 27.3099740034466834
 20.6266681917175632 33.3014146093926868 30.1949696706877972
 20.6266681917175632 33.3014146093926868 33.0799653379289111
 21.5342940114404549 30.5080295661163419 15.7699913344822278
 21.5342940114404549 30.5080295661163419 18.6549870017233417
 21.5342940114404549 30.5080295661163419 21.5399826689644556
 21.5342940114404549 30.5080295661163419 24.4249783362055695
 21.5342940114404549 30.5080295661163419 27.3099740034466834
 21.5342940114404549 30.5080295661163419 30.1949696706877972
 21.5342940114404549 30.5080295661163419 33.0799653379289111
 22.4419198311633501 27.7146445228399969 15.7699913344822278
 22.4419198311633501 27.7146445228399969 18.6549870017233417
 22.4419198311633501 27.7146445228399969 21.5399826689644556
 22.4419198311633501 27.7146445228399969 24.4249783362055695
 22.4419198311633501 27.7146445228399969 27.3099740034466834
 22.4419198311633501 27.7146445228399969 30.1949696706877972
 22.4419198311633501 27.7146445228399969 33.0799653379289111
 23.3495456508862453 24.9212594795636484 15.7699913344822278
 23.3495456508862453 24.9212594795636484 18.6549870017233417
 23.3495456508862453 24.9212594795636484 21.5399826689644556
 23.3495456508862453 24.9212594795636484 24.4249783362055695
 23.3495456508862453 24.9212594795636484 27.3099740034466834
 23.3495456508862453 24.9212594795636484 30.1949696706877972
 23.3495456508862453 24.9212594795636484 33.0799653379289111
 24.2571714706091370 22.1278744362872999 15.7699913344822278
 24.2571714706091370 22.1278744362872999 18.6549870017233417
 24.2571714706091370 22.1278744362872999 21.5399826689644556
 24.2571714706091370 22.1278744362872999 24.4249783362055695
 24.2571714706091370 22.1278744362872999 27.3099740034466834
 24.2571714706091370 22.1278744362872999 30.1949696706877972
 24.2571714706091370 22.1278744362872999 33.0799653379289111
 27.1943103213663946 22.1278744362872999 15.7699913344822278
 27.1943103213663946 22.1278744362872999 18.6549870017233417
 27.1943103213663946 22.1278744362872999 21.5399826689644556
 27.1943103213663946 22.1278744362872999 24.4249783362055695
 27.1943103213663946 22.1278744362872999 27.3099740034466834
 27.1943103213663946 22.1278744362872999 30.1949696706877972
 27.1943103213663946 22.1278744362872999 33.0799653379289111
 30.1314491721236521 22.1278744362872999 15.7699913344822278
 30.1314491721236521 22.1278744362872999 18.6549870017233417
 30.1314491721236521 22.1278744362872999 21.5399826689644556
 30.1314491721236521 22.1278744362872999 24.4249783362055695
 30.1314491721236521 22.1278744362872999 27.3099740034466834
 30.1314491721236521 22.1278744362872999 30.1949696706877972
 30.1314491721236521 22.1278744362872999 33.0799653379289111
 33.0685880228809097 22.1278744362872999 15.7699913344822278
 33.0685880228809097 22.1278744362872999 18.6549870017233417
 33.0685880228809097 22.1278744362872999 21.5399826689644556
 33.0685880228809097 22.1278744362872999 24.4249783362055695
 33.0685880228809097 22.1278744362872999 27.3099740034466834
 33.0685880228809097 22.1278744362872999 30.1949696706877972
 33.0685880228809097 22.1278744362872999 33.0799653379289111
 36.0057268736381602 22.1278744362872999 15.7699913344822278
 36.0057268736381602 22.1278744362872999 18.6549870017233417
 36.0057268736381602 22.1278744362872999 21.5399826689644556
 36.0057268736381602 22.1278744362872999 24.4249783362055695
 36.0057268736381602 22.1278744362872999 27.3099740034466834
 36.0057268736381602 22.1278744362872999 30.1949696706877972
 36.0057268736381602 22.1278744362872999 33.0799653379289111
 36.9133526933610554 24.9212594795636448 15.7699913344822278
 36.9133526933610554 24.9212594795636448 18.6549870017233417
 36.9133526933610554 24.9212594795636448 21.5399826689644556
 36.9133526933610554 24.9212594795636448 24.4249783362055695
 36.9133526933610554 24.9212594795636448 27.3099740034466834
 36.9133526933610554 24.9212594795636448 30.1949696706877972
 36.9133526933610554 24.9212594795636448 33.0799653379289111
 37.8209785130839506 27.7146445228399934 15.7699913344822278
 37.8209785130839506 27.7146445228399934 18.6549870017233417
 37.8209785130839506 27.7146445228399934 21.5399826689644556
 37.8209785130839506 27.7146445228399934 24.4249783362055695
 37.8209785130839506 27.7146445228399934 27.3099740034466834
 37.8209785130839506 27.7146445228399934 30.1949696706877972
 37.8209785130839506 27.7146445228399934 33.0799653379289111
 38.7286043328068459 30.5080295661163419 15.7699913344822278
 38.7286043328068459 30.5080295661163419 18.6549870017233417
 38.7286043328068459 30.5080295661163419 21.5399826689644556
 38.7286043328068459 30.5080295661163419 24.4249783362055695
 38.7286043328068459 30.5080295661163419 27.3099740034466834
 38.7286043328068459 30.5080295661163419 30.1949696706877972
 38.7286043328068459 30.5080295661163419 33.0799653379289111
 42.0124253976312616 34.0734872466211485 17.2124891681027847
 42.0124253976312616 34.0734872466211485 20.0974848353438986
 42.0124253976312616 34.0734872466211485 22.9824805025850125
 42.0124253976312616 34.0734872466211485 25.8674761698261264
 42.0124253976312616 34.0734872466211485 28.7524718370672403
 42.0124253976312616 34.0734872466211485 31.6374675043083542
 39.6362301525297411 35.7998941470315302 17.2124891681027847
 39.6362301525297411 35.7998941470315302 20.0974848353438986
 39.6362301525297411 35.7998941470315302 22.9824805025850125
 39.6362301525297411 35.7998941470315302 25.8674761698261264
 39.6362301525297411 35.7998941470315302 28.7524718370672403
 39.6362301525297411 35.7998941470315302 31.6374675043083542
 37.2600349074282207 37.5263010474419048 17.2124891681027847
 37.2600349074282207 37.5263010474419048 20.0974848353438986
 37.2600349074282207 37.5263010474419048 22.9824805025850125
 37.2600349074282207 37.5263010474419048 25.8674761698261264
 37.2600349074282207 37.5263010474419048 28.7524718370672403
 37.2600349074282207 37.5263010474419048 31.6374675043083542
 34.8838396623267002 39.2527079478522865 17.2124891681027847
 34.8838396623267002 39.2527079478522865 20.0974848353438986
 34.8838396623267002 39.2527079478522865 22.9824805025850125
 34.8838396623267002 39.2527079478522865 25.8674761698261264
 34.8838396623267002 39.2527079478522865 28.7524718370672403
 34.8838396623267002 39.2527079478522865 31.6374675043083542
 32.5076444172251726 40.9791148482626681 17.2124891681027847
 32.5076444172251726 40.9791148482626681 20.0974848353438986
 32.5076444172251726 40.9791148482626681 22.9824805025850125
 32.5076444172251726 40.9791148482626681 25.8674761698261264
 32.5076444172251726 40.9791148482626681 28.7524718370672403
 32.5076444172251726 40.9791148482626681 31.6374675043083542
 30.1314491721236521 42.7055217486730427 17.2124891681027847
 30.1314491721236521 42.7055217486730427 20.0974848353438986
 30.1314491721236521 42.7055217486730427 22.9824805025850125
 30.1314491721236521 42.7055217486730427 25.8674761698261264
 30.1314491721236521 42.7055217486730427 28.7524718370672403
 30.1314491721236521 42.7055217486730427 31.6374675043083542
 27.7552539270221317 40.9791148482626681 17.2124891681027847
 27.7552539270221317 40.9791148482626681 20.0974848353438986
 27.7552539270221317 40.9791148482626681 22.9824805025850125
 27.7552539270221317 40.9791148482626681 25.8674761698261264
 27.7552539270221317 40.9791148482626681 28.7524718370672403
 27.7552539270221317 40.9791148482626681 31.6374675043083542
 25.3790586819206077 39.2527079478522865 17.2124891681027847
 25.3790586819206077 39.2527079478522865 20.0974848353438986
 25.3790586819206077 39.2527079478522865 22.9824805025850125
 25.3790586819206077 39.2527079478522865 25.8674761698261264
 25.3790586819206077 39.2527079478522865 28.7524718370672403
 25.3790586819206077 39.2527079478522865 31.6374675043083542
 23.0028634368190836 37.5263010474419119 17.2124891681027847
 23.0028634368190836 37.5263010474419119 20.0974848353438986
 23.0028634368190836 37.5263010474419119 22.9824805025850125
 23.0028634368190836 37.5263010474419119 25.8674761698261264
 23.0028634368190836 37.5263010474419119 28.7524718370672403
 23.0028634368190836 37.5263010474419119 31.6374675043083542
 20.6266681917175632 35.7998941470315302 17.2124891681027847
 20.6266681917175632 35.7998941470315302 20.0974848353438986
 20.6266681917175632 35.7998941470315302 22.9824805025850125
 20.6266681917175632 35.7998941470315302 25.8674761698261264
 20.6266681917175632 35.7998941470315302 28.7524718370672403
 20.6266681917175632 35.7998941470315302 31.6374675043083542
 18.2504729466160391 34.0734872466211556 17.2124891681027847
 18.2504729466160391 34.0734872466211556 20.0974848353438986
 18.2504729466160391 34.0734872466211556 22.9824805025850125
 18.2504729466160391 34.0734872466211556 25.8674761698261264
 18.2504729466160391 34.0734872466211556 28.7524718370672403
 18.2504729466160391 34.0734872466211556 31.6374675043083542
 19.1580987663389308 31.2801022033448071 17.2124891681027847
 19.1580987663389308 31.2801022033448071 20.0974848353438986
 19.1580987663389308 31.2801022033448071 22.9824805025850125
 19.1580987663389308 31.2801022033448071 25.8674761698261264
 19.1580987663389308 31.2801022033448071 28.7524718370672403
 19.1580987663389308 31.2801022033448071 31.6374675043083542
 20.0657245860618261 28.4867171600684586 17.2124891681027847
 20.0657245860618261 28.4867171600684586 20.0974848353438986
 20.0657245860618261 28.4867171600684586 22.9824805025850125
 20.0657245860618261 28.4867171600684586 25.8674761698261264