Pt 
 1.0000000000000000
    29.4315349745183141    0.0000000000000000    0.0000000000000000
     0.0000000000000000   29.4315349745183141    0.0000000000000000
     0.0000000000000000    0.0000000000000000   29.4315349745183141
 Pt 
  55
Cartesian
 14.7157674872591571 14.7157674872591571 14.7157674872591571
 17.0736512308887356 14.7157674872591571 13.2585151921752349
 17.0736512308887356 14.7157674872591571 16.1730197823430792
 12.3578837436295785 14.7157674872591571 13.2585151921752349
 12.3578837436295785 14.7157674872591571 16.1730197823430792
 13.2585151921752349 17.0736512308887356 14.7157674872591571
 16.1730197823430792 17.0736512308887356 14.7157674872591571
 13.2585151921752349 12.3578837436295785 14.7157674872591571
 16.1730197823430792 12.3578837436295785 14.7157674872591571
 14.7157674872591571 13.2585151921752349 17.0736512308887356
 14.7157674872591571 16.1730197823430792 17.0736512308887356
 14.7157674872591571 13.2585151921752349 12.3578837436295785
 14.7157674872591571 16.1730197823430792 12.3578837436295785
 19.4315349745183141 14.7157674872591571 11.8012628970913109
 19.4315349745183141 14.7157674872591571 14.7157674872591571
 19.4315349745183141 14.7157674872591571 17.6302720774270014
 10.0000000000000000 14.7157674872591571 11.8012628970913109
 10.0000000000000000 14.7157674872591571 14.7157674872591571
 10.0000000000000000 14.7157674872591571 17.6302720774270014
 11.8012628970913109 19.4315349745183141 14.7157674872591571
 14.7157674872591571 19.4315349745183141 14.7157674872591571
 17.6302720774270014 19.4315349745183141 14.7157674872591571
 11.8012628970913109 10.0000000000000000 14.7157674872591571
 14.7157674872591571 10.0000000000000000 14.7157674872591571
 17.6302720774270014 10.0000000000000000 14.7157674872591571
 14.7157674872591571 11.8012628970913109 19.4315349745183141
 14.7157674872591571 14.7157674872591571 19.4315349745183141
 14.7157674872591571 17.6302720774270014 19.4315349745183141
 14.7157674872591571 11.8012628970913109 10.0000000000000000
 14.7157674872591571 14.7157674872591571 10.0000000000000000
 14.7157674872591571 17.6302720774270014 10.0000000000000000
 17.0736512308887356 13.2585151921752349 18.5309035259726578
 17.0736512308887356 16.1730197823430792 18.5309035259726578
 17.0736512308887356 13.2585151921752349 10.9006314485456546
 17.0736512308887356 16.1730197823430792 10.9006314485456546
 12.3578837436295785 13.2585151921752349 18.5309035259726578
 12.3578837436295785 16.1730197823430792 18.5309035259726578
 12.3578837436295785 13.2585151921752349 10.9006314485456546
 12.3578837436295785 16.1730197823430792 10.9006314485456546
 18.5309035259726578 17.0736512308887356 13.2585151921752349
 18.5309035259726578 17.0736512308887356 16.1730197823430792
 10.9006314485456546 17.0736512308887356 13.2585151921752349
 10.9006314485456546 17.0736512308887356 16.1730197823430792
 18.5309035259726578 12.3578837436295785 13.2585151921752349
 18.5309035259726578 12.3578837436295785 16.1730197823430792
 10.9006314485456546 12.3578837436295785 13.2585151921752349
 10.9006314485456546 12.3578837436295785 16.1730197823430792
 13.2585151921752349 18.5309035259726578 17.0736512308887356
 16.1730197823430792 18.5309035259726578 17.0736512308887356
 13.2585151921752349 10.9006314485456546 17.0736512308887356
 16.1730197823430792 10.9006314485456546 17.0736512308887356
 13.2585151921752349 18.5309035259726578 12.3578837436295785
 16.1730197823430792 18.5309035259726578 12.3578837436295785
 13.2585151921752349 10.9006314485456546 12.3578837436295785
 16.1730197823430792 10.9006314485456546 12.3578837436295785
