Pt 
 1.0000000000000000
    54.7841125848382404    0.0000000000000000    0.0000000000000000
     0.0000000000000000   53.0816569373546656    0.0000000000000000
     0.0000000000000000    0.0000000000000000   42.1748686580101264
 Pt 
 604
Cartesian
 27.3920562924191238 25.5363620229562827  9.9999999999999982
 27.3920562924191238 25.5363620229562827 12.7718585822512640
 27.3920562924191238 25.5363620229562827 15.5437171645025316
 27.3920562924191238 25.5363620229562827 18.3155757467537974
 27.3920562924191238 25.5363620229562827 21.0874343290050632
 27.3920562924191238 25.5363620229562827 23.8592929112563290
 27.3920562924191238 25.5363620229562827 26.6311514935075948
 27.3920562924191238 25.5363620229562827 29.4030100757588642
 27.3920562924191238 25.5363620229562827 32.1748686580101264
 29.6750674102617644 26.2781573018620591 11.3859292911256311
 29.6750674102617644 26.2781573018620591 14.1577878733768969
 29.6750674102617644 26.2781573018620591 16.9296464556281627
 29.6750674102617644 26.2781573018620591 19.7015050378794285
 29.6750674102617644 26.2781573018620591 22.4733636201306979
 29.6750674102617644 26.2781573018620591 25.2452222023819601
 29.6750674102617644 26.2781573018620591 28.0170807846332295
 29.6750674102617644 26.2781573018620591 30.7889393668844953
 27.3920562924191238 27.9368619708837969 11.3859292911256311
 27.3920562924191238 27.9368619708837969 14.1577878733768969
 27.3920562924191238 27.9368619708837969 16.9296464556281627
 27.3920562924191238 27.9368619708837969 19.7015050378794285
 27.3920562924191238 27.9368619708837969 22.4733636201306979
 27.3920562924191238 27.9368619708837969 25.2452222023819601
 27.3920562924191238 27.9368619708837969 28.0170807846332295
 27.3920562924191238 27.9368619708837969 30.7889393668844953
 25.1090451745764831 26.2781573018620627 11.3859292911256311
 25.1090451745764831 26.2781573018620627 14.1577878733768969
 25.1090451745764831 26.2781573018620627 16.9296464556281627
 25.1090451745764831 26.2781573018620627 19.7015050378794285
 25.1090451745764831 26.2781573018620627 22.4733636201306979
 25.1090451745764831 26.2781573018620627 25.2452222023819601
 25.1090451745764831 26.2781573018620627 28.0170807846332295
 25.1090451745764831 26.2781573018620627 30.7889393668844953
 25.9810778248984811 23.5943167700867491 11.3859292911256311
 25.9810778248984811 23.5943167700867491 14.1577878733768969
 25.9810778248984811 23.5943167700867491 16.9296464556281627
 25.9810778248984811 23.5943167700867491 19.7015050378794285
 25.9810778248984811 23.5943167700867491 22.4733636201306979
 25.9810778248984811 23.5943167700867491 25.2452222023819601
 25.9810778248984811 23.5943167700867491 28.0170807846332295
 25.9810778248984811 23.5943167700867491 30.7889393668844953
 28.8030347599397665 23.5943167700867455 11.3859292911256311
 28.8030347599397665 23.5943167700867455 14.1577878733768969
 28.8030347599397665 23.5943167700867455 16.9296464556281627
 28.8030347599397665 23.5943167700867455 19.7015050378794285
 28.8030347599397665 23.5943167700867455 22.4733636201306979
 28.8030347599397665 23.5943167700867455 25.2452222023819601
 28.8030347599397665 23.5943167700867455 28.0170807846332295
 28.8030347599397665 23.5943167700867455 30.7889393668844953
 31.9580785281044015 27.0199525807678391 12.7718585822512640
 31.9580785281044015 27.0199525807678391 15.5437171645025298
 31.9580785281044015 27.0199525807678391 18.3155757467537974
 31.9580785281044015 27.0199525807678391 21.0874343290050632
 31.9580785281044015 27.0199525807678391 23.8592929112563290
 31.9580785281044015 27.0199525807678391 26.6311514935075948
 31.9580785281044015 27.0199525807678391 29.4030100757588642
 29.6750674102617644 28.6786572497895733 12.7718585822512640
 29.6750674102617644 28.6786572497895733 15.5437171645025298
 29.6750674102617644 28.6786572497895733 18.3155757467537974
 29.6750674102617644 28.6786572497895733 21.0874343290050632
 29.6750674102617644 28.6786572497895733 23.8592929112563290
 29.6750674102617644 28.6786572497895733 26.6311514935075948
 29.6750674102617644 28.6786572497895733 29.4030100757588642
 27.3920562924191238 30.3373619188113111 12.7718585822512640
 27.3920562924191238 30.3373619188113111 15.5437171645025298
 27.3920562924191238 30.3373619188113111 18.3155757467537974
 27.3920562924191238 30.3373619188113111 21.0874343290050632
 27.3920562924191238 30.3373619188113111 23.8592929112563290
 27.3920562924191238 30.3373619188113111 26.6311514935075948
 27.3920562924191238 30.3373619188113111 29.4030100757588642
 25.1090451745764831 28.6786572497895733 12.7718585822512640
 25.1090451745764831 28.6786572497895733 15.5437171645025298
 25.1090451745764831 28.6786572497895733 18.3155757467537974
 25.1090451745764831 28.6786572497895733 21.0874343290050632
 25.1090451745764831 28.6786572497895733 23.8592929112563290
 25.1090451745764831 28.6786572497895733 26.6311514935075948
 25.1090451745764831 28.6786572497895733 29.4030100757588642
 22.8260340567338460 27.0199525807678391 12.7718585822512640
 22.8260340567338460 27.0199525807678391 15.5437171645025298
 22.8260340567338460 27.0199525807678391 18.3155757467537974
 22.8260340567338460 27.0199525807678391 21.0874343290050632
 22.8260340567338460 27.0199525807678391 23.8592929112563290
 22.8260340567338460 27.0199525807678391 26.6311514935075948
 22.8260340567338460 27.0199525807678391 29.4030100757588642
 23.6980667070558404 24.3361120489925256 12.7718585822512640
 23.6980667070558404 24.3361120489925256 15.5437171645025298
 23.6980667070558404 24.3361120489925256 18.3155757467537974
 23.6980667070558404 24.3361120489925256 21.0874343290050632
 23.6980667070558404 24.3361120489925256 23.8592929112563290
 23.6980667070558404 24.3361120489925256 26.6311514935075948
 23.6980667070558404 24.3361120489925256 29.4030100757588642
 24.5700993573778383 21.6522715172172120 12.7718585822512640
 24.5700993573778383 21.6522715172172120 15.5437171645025298
 24.5700993573778383 21.6522715172172120 18.3155757467537974
 24.5700993573778383 21.6522715172172120 21.0874343290050632
 24.5700993573778383 21.6522715172172120 23.8592929112563290
 24.5700993573778383 21.6522715172172120 26.6311514935075948
 24.5700993573778383 21.6522715172172120 29.4030100757588642
 27.3920562924191238 21.6522715172172120 12.7718585822512640
 27.3920562924191238 21.6522715172172120 15.5437171645025298
 27.3920562924191238 21.6522715172172120 18.3155757467537974
 27.3920562924191238 21.6522715172172120 21.0874343290050632
 27.3920562924191238 21.6522715172172120 23.8592929112563290
 27.3920562924191238 21.6522715172172120 26.6311514935075948
 27.3920562924191238 21.6522715172172120 29.4030100757588642
 30.2140132274604092 21.6522715172172120 12.7718585822512640
 30.2140132274604092 21.6522715172172120 15.5437171645025298
 30.2140132274604092 21.6522715172172120 18.3155757467537974
 30.2140132274604092 21.6522715172172120 21.0874343290050632
 30.2140132274604092 21.6522715172172120 23.8592929112563290
 30.2140132274604092 21.6522715172172120 26.6311514935075948
 30.2140132274604092 21.6522715172172120 29.4030100757588642
 31.0860458777824036 24.3361120489925256 12.7718585822512640
 31.0860458777824036 24.3361120489925256 15.5437171645025298
 31.0860458777824036 24.3361120489925256 18.3155757467537974
 31.0860458777824036 24.3361120489925256 21.0874343290050632
 31.0860458777824036 24.3361120489925256 23.8592929112563290
 31.0860458777824036 24.3361120489925256 26.6311514935075948
 31.0860458777824036 24.3361120489925256 29.4030100757588642
 34.2410896459470422 27.7617478596736156 14.1577878733768969
 34.2410896459470422 27.7617478596736156 16.9296464556281663
 34.2410896459470422 27.7617478596736156 19.7015050378794285
 34.2410896459470422 27.7617478596736156 22.4733636201306979
 34.2410896459470422 27.7617478596736156 25.2452222023819637
 34.2410896459470422 27.7617478596736156 28.0170807846332295
 31.9580785281044015 29.4204525286953533 14.1577878733768969
 31.9580785281044015 29.4204525286953533 16.9296464556281663
 31.9580785281044015 29.4204525286953533 19.7015050378794285
 31.9580785281044015 29.4204525286953533 22.4733636201306979
 31.9580785281044015 29.4204525286953533 25.2452222023819637
 31.9580785281044015 29.4204525286953533 28.0170807846332295
 29.6750674102617644 31.0791571977170875 14.1577878733768969
 29.6750674102617644 31.0791571977170875 16.9296464556281663
 29.6750674102617644 31.0791571977170875 19.7015050378794285
 29.6750674102617644 31.0791571977170875 22.4733636201306979
 29.6750674102617644 31.0791571977170875 25.2452222023819637
 29.6750674102617644 31.0791571977170875 28.0170807846332295
 27.3920562924191238 32.7378618667388253 14.1577878733768969
 27.3920562924191238 32.7378618667388253 16.9296464556281663
 27.3920562924191238 32.7378618667388253 19.7015050378794285
 27.3920562924191238 32.7378618667388253 22.4733636201306979
 27.3920562924191238 32.7378618667388253 25.2452222023819637
 27.3920562924191238 32.7378618667388253 28.0170807846332295
 25.1090451745764867 31.0791571977170875 14.1577878733768969
 25.1090451745764867 31.0791571977170875 16.9296464556281663
 25.1090451745764867 31.0791571977170875 19.7015050378794285
 25.1090451745764867 31.0791571977170875 22.4733636201306979
 25.1090451745764867 31.0791571977170875 25.2452222023819637
 25.1090451745764867 31.0791571977170875 28.0170807846332295
 22.8260340567338460 29.4204525286953533 14.1577878733768969
 22.8260340567338460 29.4204525286953533 16.9296464556281663
 22.8260340567338460 29.4204525286953533 19.7015050378794285
 22.8260340567338460 29.4204525286953533 22.4733636201306979
 22.8260340567338460 29.4204525286953533 25.2452222023819637
 22.8260340567338460 29.4204525286953533 28.0170807846332295
 20.5430229388912053 27.7617478596736191 14.1577878733768969
 20.5430229388912053 27.7617478596736191 16.9296464556281663
 20.5430229388912053 27.7617478596736191 19.7015050378794285
 20.5430229388912053 27.7617478596736191 22.4733636201306979
 20.5430229388912053 27.7617478596736191 25.2452222023819637
 20.5430229388912053 27.7617478596736191 28.0170807846332295
 21.4150555892132033 25.0779073278983056 14.1577878733768969
 21.4150555892132033 25.0779073278983056 16.9296464556281663
 21.4150555892132033 25.0779073278983056 19.7015050378794285
 21.4150555892132033 25.0779073278983056 22.4733636201306979
 21.4150555892132033 25.0779073278983056 25.2452222023819637
 21.4150555892132033 25.0779073278983056 28.0170807846332295
 22.2870882395351977 22.3940667961229920 14.1577878733768969
 22.2870882395351977 22.3940667961229920 16.9296464556281663
 22.2870882395351977 22.3940667961229920 19.7015050378794285
 22.2870882395351977 22.3940667961229920 22.4733636201306979
 22.2870882395351977 22.3940667961229920 25.2452222023819637
 22.2870882395351977 22.3940667961229920 28.0170807846332295
 23.1591208898571956 19.7102262643476784 14.1577878733768969
 23.1591208898571956 19.7102262643476784 16.9296464556281663
 23.1591208898571956 19.7102262643476784 19.7015050378794285
 23.1591208898571956 19.7102262643476784 22.4733636201306979
 23.1591208898571956 19.7102262643476784 25.2452222023819637
 23.1591208898571956 19.7102262643476784 28.0170807846332295
 25.9810778248984811 19.7102262643476749 14.1577878733768969
 25.9810778248984811 19.7102262643476749 16.9296464556281663
 25.9810778248984811 19.7102262643476749 19.7015050378794285
 25.9810778248984811 19.7102262643476749 22.4733636201306979
 25.9810778248984811 19.7102262643476749 25.2452222023819637
 25.9810778248984811 19.7102262643476749 28.0170807846332295
 28.8030347599397665 19.7102262643476749 14.1577878733768969
 28.8030347599397665 19.7102262643476749 16.9296464556281663
 28.8030347599397665 19.7102262643476749 19.7015050378794285
 28.8030347599397665 19.7102262643476749 22.4733636201306979
 28.8030347599397665 19.7102262643476749 25.2452222023819637
 28.8030347599397665 19.7102262643476749 28.0170807846332295
 31.6249916949810483 19.7102262643476749 14.1577878733768969
 31.6249916949810483 19.7102262643476749 16.9296464556281663
 31.6249916949810483 19.7102262643476749 19.7015050378794285
 31.6249916949810483 19.7102262643476749 22.4733636201306979
 31.6249916949810483 19.7102262643476749 25.2452222023819637
 31.6249916949810483 19.7102262643476749 28.0170807846332295
 32.4970243453030463 22.3940667961229884 14.1577878733768969
 32.4970243453030463 22.3940667961229884 16.9296464556281663
 32.4970243453030463 22.3940667961229884 19.7015050378794285
 32.4970243453030463 22.3940667961229884 22.4733636201306979
 32.4970243453030463 22.3940667961229884 25.2452222023819637
 32.4970243453030463 22.3940667961229884 28.0170807846332295
 33.3690569956250442 25.0779073278983020 14.1577878733768969
 33.3690569956250442 25.0779073278983020 16.9296464556281663
 33.3690569956250442 25.0779073278983020 19.7015050378794285
 33.3690569956250442 25.0779073278983020 22.4733636201306979
 33.3690569956250442 25.0779073278983020 25.2452222023819637
 33.3690569956250442 25.0779073278983020 28.0170807846332295
 36.5241007637896828 28.5035431385793920 15.5437171645025316
 36.5241007637896828 28.5035431385793920 18.3155757467537974
 36.5241007637896828 28.5035431385793920 21.0874343290050632
 36.5241007637896828 28.5035431385793920 23.8592929112563290
 36.5241007637896828 28.5035431385793920 26.6311514935075948
 34.2410896459470422 30.1622478076011298 15.5437171645025316
 34.2410896459470422 30.1622478076011298 18.3155757467537974
 34.2410896459470422 30.1622478076011298 21.0874343290050632
 34.2410896459470422 30.1622478076011298 23.8592929112563290
 34.2410896459470422 30.1622478076011298 26.6311514935075948
 31.9580785281044015 31.8209524766228675 15.5437171645025316
 31.9580785281044015 31.8209524766228675 18.3155757467537974
 31.9580785281044015 31.8209524766228675 21.0874343290050632
 31.9580785281044015 31.8209524766228675 23.8592929112563290
 31.9580785281044015 31.8209524766228675 26.6311514935075948
 29.6750674102617644 33.4796571456446017 15.5437171645025316
 29.6750674102617644 33.4796571456446017 18.3155757467537974
 29.6750674102617644 33.4796571456446017 21.0874343290050632
 29.6750674102617644 33.4796571456446017 23.8592929112563290
 29.6750674102617644 33.4796571456446017 26.6311514935075948
 27.3920562924191238 35.1383618146663395 15.5437171645025316
 27.3920562924191238 35.1383618146663395 18.3155757467537974
 27.3920562924191238 35.1383618146663395 21.0874343290050632
 27.3920562924191238 35.1383618146663395 23.8592929112563290
 27.3920562924191238 35.1383618146663395 26.6311514935075948
 25.1090451745764867 33.4796571456446017 15.5437171645025316
 25.1090451745764867 33.4796571456446017 18.3155757467537974
 25.1090451745764867 33.4796571456446017 21.0874343290050632
 25.1090451745764867 33.4796571456446017 23.8592929112563290
 25.1090451745764867 33.4796571456446017 26.6311514935075948
 22.8260340567338460 31.8209524766228675 15.5437171645025316
 22.8260340567338460 31.8209524766228675 18.3155757467537974
 22.8260340567338460 31.8209524766228675 21.0874343290050632
 22.8260340567338460 31.8209524766228675 23.8592929112563290
 22.8260340567338460 31.8209524766228675 26.6311514935075948
 20.5430229388912053 30.1622478076011333 15.5437171645025316
 20.5430229388912053 30.1622478076011333 18.3155757467537974
 20.5430229388912053 30.1622478076011333 21.0874343290050632
 20.5430229388912053 30.1622478076011333 23.8592929112563290
 20.5430229388912053 30.1622478076011333 26.6311514935075948
 18.2600118210485647 28.5035431385793956 15.5437171645025316
 18.2600118210485647 28.5035431385793956 18.3155757467537974
 18.2600118210485647 28.5035431385793956 21.0874343290050632
 18.2600118210485647 28.5035431385793956 23.8592929112563290
 18.2600118210485647 28.5035431385793956 26.6311514935075948
 19.1320444713705626 25.8197026068040820 15.5437171645025316
 19.1320444713705626 25.8197026068040820 18.3155757467537974
 19.1320444713705626 25.8197026068040820 21.0874343290050632
 19.1320444713705626 25.8197026068040820 23.8592929112563290
 19.1320444713705626 25.8197026068040820 26.6311514935075948
 20.0040771216925606 23.1358620750287685 15.5437171645025316
 20.0040771216925606 23.1358620750287685 18.3155757467537974
 20.0040771216925606 23.1358620750287685 21.0874343290050632
 20.0040771216925606 23.1358620750287685 23.8592929112563290
 20.0040771216925606 23.1358620750287685 26.6311514935075948
 20.8761097720145550 20.4520215432534549 15.5437171645025316
 20.8761097720145550 20.4520215432534549 18.3155757467537974
 20.8761097720145550 20.4520215432534549 21.0874343290050632
 20.8761097720145550 20.4520215432534549 23.8592929112563290
 20.8761097720145550 20.4520215432534549 26.6311514935075948
 21.7481424223365529 17.7681810114781413 15.5437171645025316
 21.7481424223365529 17.7681810114781413 18.3155757467537974
 21.7481424223365529 17.7681810114781413 21.0874343290050632
 21.7481424223365529 17.7681810114781413 23.8592929112563290
 21.7481424223365529 17.7681810114781413 26.6311514935075948
 24.5700993573778348 17.7681810114781413 15.5437171645025316
 24.5700993573778348 17.7681810114781413 18.3155757467537974
 24.5700993573778348 17.7681810114781413 21.0874343290050632
 24.5700993573778348 17.7681810114781413 23.8592929112563290
 24.5700993573778348 17.7681810114781413 26.6311514935075948
 27.3920562924191202 17.7681810114781413 15.5437171645025316
 27.3920562924191202 17.7681810114781413 18.3155757467537974
 27.3920562924191202 17.7681810114781413 21.0874343290050632
 27.3920562924191202 17.7681810114781413 23.8592929112563290
 27.3920562924191202 17.7681810114781413 26.6311514935075948
 30.2140132274604056 17.7681810114781413 15.5437171645025316
 30.2140132274604056 17.7681810114781413 18.3155757467537974
 30.2140132274604056 17.7681810114781413 21.0874343290050632
 30.2140132274604056 17.7681810114781413 23.8592929112563290
 30.2140132274604056 17.7681810114781413 26.6311514935075948
 33.0359701625016910 17.7681810114781413 15.5437171645025316
 33.0359701625016910 17.7681810114781413 18.3155757467537974
 33.0359701625016910 17.7681810114781413 21.0874343290050632
 33.0359701625016910 17.7681810114781413 23.8592929112563290
 33.0359701625016910 17.7681810114781413 26.6311514935075948
 33.9080028128236890 20.4520215432534513 15.5437171645025316
 33.9080028128236890 20.4520215432534513 18.3155757467537974
 33.9080028128236890 20.4520215432534513 21.0874343290050632
 33.9080028128236890 20.4520215432534513 23.8592929112563290
 33.9080028128236890 20.4520215432534513 26.6311514935075948
 34.7800354631456869 23.1358620750287685 15.5437171645025316
 34.7800354631456869 23.1358620750287685 18.3155757467537974
 34.7800354631456869 23.1358620750287685 21.0874343290050632
 34.7800354631456869 23.1358620750287685 23.8592929112563290
 34.7800354631456869 23.1358620750287685 26.6311514935075948
 35.6520681134676849 25.8197026068040785 15.5437171645025316
 35.6520681134676849 25.8197026068040785 18.3155757467537974
 35.6520681134676849 25.8197026068040785 21.0874343290050632
 35.6520681134676849 25.8197026068040785 23.8592929112563290
 35.6520681134676849 25.8197026068040785 26.6311514935075948
 38.8071118816323235 29.2453384174851720 16.9296464556281627
 38.8071118816323235 29.2453384174851720 19.7015050378794285
 38.8071118816323235 29.2453384174851720 22.4733636201306979
 38.8071118816323235 29.2453384174851720 25.2452222023819637
 36.5241007637896828 30.9040430865069098 16.9296464556281627
 36.5241007637896828 30.9040430865069098 19.7015050378794285
 36.5241007637896828 30.9040430865069098 22.4733636201306979
 36.5241007637896828 30.9040430865069098 25.2452222023819637
 34.2410896459470422 32.5627477555286475 16.9296464556281627
 34.2410896459470422 32.5627477555286475 19.7015050378794285
 34.2410896459470422 32.5627477555286475 22.4733636201306979
 34.2410896459470422 32.5627477555286475 25.2452222023819637
 31.9580785281044015 34.2214524245503782 16.9296464556281627
 31.9580785281044015 34.2214524245503782 19.7015050378794285
 31.9580785281044015 34.2214524245503782 22.4733636201306979
 31.9580785281044015 34.2214524245503782 25.2452222023819637
 29.6750674102617644 35.8801570935721159 16.9296464556281627
 29.6750674102617644 35.8801570935721159 19.7015050378794285
 29.6750674102617644 35.8801570935721159 22.4733636201306979
 29.6750674102617644 35.8801570935721159 25.2452222023819637
 27.3920562924191238 37.5388617625938537 16.9296464556281627
 27.3920562924191238 37.5388617625938537 19.7015050378794285
 27.3920562924191238 37.5388617625938537 22.4733636201306979
 27.3920562924191238 37.5388617625938537 25.2452222023819637
 25.1090451745764867 35.8801570935721159 16.9296464556281627
 25.1090451745764867 35.8801570935721159 19.7015050378794285
 25.1090451745764867 35.8801570935721159 22.4733636201306979
 25.1090451745764867 35.8801570935721159 25.2452222023819637
 22.8260340567338460 34.2214524245503782 16.9296464556281627
 22.8260340567338460 34.2214524245503782 19.7015050378794285
 22.8260340567338460 34.2214524245503782 22.4733636201306979
 22.8260340567338460 34.2214524245503782 25.2452222023819637
 20.5430229388912053 32.5627477555286475 16.9296464556281627
 20.5430229388912053 32.5627477555286475 19.7015050378794285
 20.5430229388912053 32.5627477555286475 22.4733636201306979
 20.5430229388912053 32.5627477555286475 25.2452222023819637
 18.2600118210485647 30.9040430865069098 16.9296464556281627
 18.2600118210485647 30.9040430865069098 19.7015050378794285
 18.2600118210485647 30.9040430865069098 22.4733636201306979
 18.2600118210485647 30.9040430865069098 25.2452222023819637
 15.9770007032059276 29.2453384174851756 16.9296464556281627
 15.9770007032059276 29.2453384174851756 19.7015050378794285
 15.9770007032059276 29.2453384174851756 22.4733636201306979
 15.9770007032059276 29.2453384174851756 25.2452222023819637
 16.8490333535279220 26.5614978857098620 16.9296464556281627
 16.8490333535279220 26.5614978857098620 19.7015050378794285
 16.8490333535279220 26.5614978857098620 22.4733636201306979
 16.8490333535279220 26.5614978857098620 25.2452222023819637
 17.7210660038499199 23.8776573539345485 16.9296464556281627
 17.7210660038499199 23.8776573539345485 19.7015050378794285
 17.7210660038499199 23.8776573539345485 22.4733636201306979
 17.7210660038499199 23.8776573539345485 25.2452222023819637
 18.5930986541719179 21.1938168221592349 16.9296464556281627
 18.5930986541719179 21.1938168221592349 19.7015050378794285
 18.5930986541719179 21.1938168221592349 22.4733636201306979
 18.5930986541719179 21.1938168221592349 25.2452222023819637
 19.4651313044939123 18.5099762903839213 16.9296464556281627
 19.4651313044939123 18.5099762903839213 19.7015050378794285
 19.4651313044939123 18.5099762903839213 22.4733636201306979
 19.4651313044939123 18.5099762903839213 25.2452222023819637
 20.3371639548159102 15.8261357586086078 16.9296464556281627
 20.3371639548159102 15.8261357586086078 19.7015050378794285
 20.3371639548159102 15.8261357586086078 22.4733636201306979
 20.3371639548159102 15.8261357586086078 25.2452222023819637
 23.1591208898571921 15.8261357586086060 16.9296464556281627
 23.1591208898571921 15.8261357586086060 19.7015050378794285
 23.1591208898571921 15.8261357586086060 22.4733636201306979
 23.1591208898571921 15.8261357586086060 25.2452222023819637
 25.9810778248984775 15.8261357586086060 16.9296464556281627
 25.9810778248984775 15.8261357586086060 19.7015050378794285
 25.9810778248984775 15.8261357586086060 22.4733636201306979
 25.9810778248984775 15.8261357586086060 25.2452222023819637
 28.8030347599397629 15.8261357586086042 16.9296464556281627
 28.8030347599397629 15.8261357586086042 19.7015050378794285
 28.8030347599397629 15.8261357586086042 22.4733636201306979
 28.8030347599397629 15.8261357586086042 25.2452222023819637
 31.6249916949810483 15.8261357586086042 16.9296464556281627
 31.6249916949810483 15.8261357586086042 19.7015050378794285
 31.6249916949810483 15.8261357586086042 22.4733636201306979
 31.6249916949810483 15.8261357586086042 25.2452222023819637
 34.4469486300223338 15.8261357586086042 16.9296464556281627
 34.4469486300223338 15.8261357586086042 19.7015050378794285
 34.4469486300223338 15.8261357586086042 22.4733636201306979
 34.4469486300223338 15.8261357586086042 25.2452222023819637
 35.3189812803443317 18.5099762903839178 16.9296464556281627
 35.3189812803443317 18.5099762903839178 19.7015050378794285
 35.3189812803443317 18.5099762903839178 22.4733636201306979
 35.3189812803443317 18.5099762903839178 25.2452222023819637
 36.1910139306663297 21.1938168221592314 16.9296464556281627
 36.1910139306663297 21.1938168221592314 19.7015050378794285
 36.1910139306663297 21.1938168221592314 22.4733636201306979
 36.1910139306663297 21.1938168221592314 25.2452222023819637
 37.0630465809883276 23.8776573539345449 16.9296464556281627
 37.0630465809883276 23.8776573539345449 19.7015050378794285
 37.0630465809883276 23.8776573539345449 22.4733636201306979
 37.0630465809883276 23.8776573539345449 25.2452222023819637
 37.9350792313103256 26.5614978857098585 16.9296464556281627
 37.9350792313103256 26.5614978857098585 19.7015050378794285
 37.9350792313103256 26.5614978857098585 22.4733636201306979
 37.9350792313103256 26.5614978857098585 25.2452222023819637
 41.0901229994749571 29.9871336963909485 18.3155757467537974
 41.0901229994749571 29.9871336963909485 21.0874343290050632
 41.0901229994749571 29.9871336963909485 23.8592929112563290
 38.8071118816323235 31.6458383654126862 18.3155757467537974
 38.8071118816323235 31.6458383654126862 21.0874343290050632
 38.8071118816323235 31.6458383654126862 23.8592929112563290
 36.5241007637896828 33.3045430344344240 18.3155757467537974
 36.5241007637896828 33.3045430344344240 21.0874343290050632
 36.5241007637896828 33.3045430344344240 23.8592929112563290
 34.2410896459470422 34.9632477034561617 18.3155757467537974
 34.2410896459470422 34.9632477034561617 21.0874343290050632
 34.2410896459470422 34.9632477034561617 23.8592929112563290
 31.9580785281044015 36.6219523724778924 18.3155757467537974
 31.9580785281044015 36.6219523724778924 21.0874343290050632
 31.9580785281044015 36.6219523724778924 23.8592929112563290
 29.6750674102617644 38.2806570414996301 18.3155757467537974
 29.6750674102617644 38.2806570414996301 21.0874343290050632
 29.6750674102617644 38.2806570414996301 23.8592929112563290
 27.3920562924191238 39.9393617105213679 18.3155757467537974
 27.3920562924191238 39.9393617105213679 21.0874343290050632
 27.3920562924191238 39.9393617105213679 23.8592929112563290
 25.1090451745764867 38.2806570414996301 18.3155757467537974
 25.1090451745764867 38.2806570414996301 21.0874343290050632
 25.1090451745764867 38.2806570414996301 23.8592929112563290
 22.8260340567338460 36.6219523724778924 18.3155757467537974
 22.8260340567338460 36.6219523724778924 21.0874343290050632
 22.8260340567338460 36.6219523724778924 23.8592929112563290
 20.5430229388912053 34.9632477034561617 18.3155757467537974
 20.5430229388912053 34.9632477034561617 21.0874343290050632
 20.5430229388912053 34.9632477034561617 23.8592929112563290
 18.2600118210485647 33.3045430344344240 18.3155757467537974
 18.2600118210485647 33.3045430344344240 21.0874343290050632
 18.2600118210485647 33.3045430344344240 23.8592929112563290
 15.9770007032059276 31.6458383654126898 18.3155757467537974
 15.9770007032059276 31.6458383654126898 21.0874343290050632
 15.9770007032059276 31.6458383654126898 23.8592929112563290
 13.6939895853632869 29.9871336963909556 18.3155757467537974
 13.6939895853632869 29.9871336963909556 21.0874343290050632
 13.6939895853632869 29.9871336963909556 23.8592929112563290
 14.5660222356852849 27.3032931646156385 18.3155757467537974
 14.5660222356852849 27.3032931646156385 21.0874343290050632
 14.5660222356852849 27.3032931646156385 23.8592929112563290
 15.4380548860072810 24.6194526328403249 18.3155757467537974
 15.4380548860072810 24.6194526328403249 21.0874343290050632
 15.4380548860072810 24.6194526328403249 23.8592929112563290
 16.3100875363292772 21.9356121010650114 18.3155757467537974
 16.3100875363292772 21.9356121010650114 21.0874343290050632
 16.3100875363292772 21.9356121010650114 23.8592929112563290
 17.1821201866512752 19.2517715692897013 18.3155757467537974
 17.1821201866512752 19.2517715692897013 21.0874343290050632
 17.1821201866512752 19.2517715692897013 23.8592929112563290
 18.0541528369732696 16.5679310375143842 18.3155757467537974
 18.0541528369732696 16.5679310375143842 21.0874343290050632
 18.0541528369732696 16.5679310375143842 23.8592929112563290
 18.9261854872952640 13.8840905057390724 18.3155757467537974
 18.9261854872952640 13.8840905057390724 21.0874343290050632
 18.9261854872952640 13.8840905057390724 23.8592929112563290
 21.7481424223365494 13.8840905057390724 18.3155757467537974
 21.7481424223365494 13.8840905057390724 21.0874343290050632
 21.7481424223365494 13.8840905057390724 23.8592929112563290
 24.5700993573778348 13.8840905057390707 18.3155757467537974
 24.5700993573778348 13.8840905057390707 21.0874343290050632
 24.5700993573778348 13.8840905057390707 23.8592929112563290
 27.3920562924191202 13.8840905057390707 18.3155757467537974
 27.3920562924191202 13.8840905057390707 21.0874343290050632
 27.3920562924191202 13.8840905057390707 23.8592929112563290
 30.2140132274604056 13.8840905057390689 18.3155757467537974
 30.2140132274604056 13.8840905057390689 21.0874343290050632
 30.2140132274604056 13.8840905057390689 23.8592929112563290
 33.0359701625016910 13.8840905057390689 18.3155757467537974
 33.0359701625016910 13.8840905057390689 21.0874343290050632
 33.0359701625016910 13.8840905057390689 23.8592929112563290
 35.8579270975429765 13.8840905057390671 18.3155757467537974
 35.8579270975429765 13.8840905057390671 21.0874343290050632
 35.8579270975429765 13.8840905057390671 23.8592929112563290
 36.7299597478649744 16.5679310375143842 18.3155757467537974
 36.7299597478649744 16.5679310375143842 21.0874343290050632
 36.7299597478649744 16.5679310375143842 23.8592929112563290