Pt 
 1.0000000000000000
    29.1320444713705555    0.0000000000000000    0.0000000000000000
     0.0000000000000000   28.6850904015940991    0.0000000000000000
     0.0000000000000000    0.0000000000000000   25.5437171645025316
 Pt 
  23
Cartesian
 14.5660222356852778 13.8840905057390707 10.0000000000000000
 14.5660222356852778 13.8840905057390707 12.7718585822512658
 14.5660222356852778 13.8840905057390707 15.5437171645025316
 16.8490333535279184 14.6258857846448489 11.3859292911256329
 16.8490333535279184 14.6258857846448489 14.1577878733768987
 14.5660222356852778 16.2845904536665849 11.3859292911256329
 14.5660222356852778 16.2845904536665849 14.1577878733768987
 12.2830111178426389 14.6258857846448489 11.3859292911256329
 12.2830111178426389 14.6258857846448489 14.1577878733768987
 13.1550437681646351 11.9420452528695353 11.3859292911256329
 13.1550437681646351 11.9420452528695353 14.1577878733768987
 15.9770007032059205 11.9420452528695353 11.3859292911256329
 15.9770007032059205 11.9420452528695353 14.1577878733768987
 19.1320444713705555 15.3676810635506254 12.7718585822512658
 16.8490333535279184 17.0263857325723613 12.7718585822512658
 14.5660222356852778 18.6850904015940991 12.7718585822512658
 12.2830111178426389 17.0263857325723649 12.7718585822512658
 10.0000000000000000 15.3676810635506271 12.7718585822512658
 10.8720326503219944 12.6838405317753136 12.7718585822512658
 11.7440653006439923 10.0000000000000000 12.7718585822512658
 14.5660222356852778 10.0000000000000000 12.7718585822512658
 17.3879791707265632 10.0000000000000000 12.7718585822512658
 18.2600118210485576 12.6838405317753136 12.7718585822512658
