Pt 
 1.0000000000000000
    38.2640889427411111    0.0000000000000000    0.0000000000000000
     0.0000000000000000   37.3701808031881981    0.0000000000000000
     0.0000000000000000    0.0000000000000000   39.4030100757588642
 Pt 
 258
Cartesian
 19.1320444713705555 17.7681810114781413 10.0000000000000000
 19.1320444713705555 17.7681810114781413 12.7718585822512658
 19.1320444713705555 17.7681810114781413 15.5437171645025316
 19.1320444713705555 17.7681810114781413 18.3155757467538010
 19.1320444713705555 17.7681810114781413 21.0874343290050632
 19.1320444713705555 17.7681810114781413 23.8592929112563326
 19.1320444713705555 17.7681810114781413 26.6311514935075984
 19.1320444713705555 17.7681810114781413 29.4030100757588642
 21.4150555892131962 18.5099762903839178 11.3859292911256329
 21.4150555892131962 18.5099762903839178 14.1577878733768987
 21.4150555892131962 18.5099762903839178 16.9296464556281663
 21.4150555892131962 18.5099762903839178 19.7015050378794321
 21.4150555892131962 18.5099762903839178 22.4733636201306979
 21.4150555892131962 18.5099762903839178 25.2452222023819637
 21.4150555892131962 18.5099762903839178 28.0170807846332295
 19.1320444713705555 20.1686809594056555 11.3859292911256329
 19.1320444713705555 20.1686809594056555 14.1577878733768987
 19.1320444713705555 20.1686809594056555 16.9296464556281663
 19.1320444713705555 20.1686809594056555 19.7015050378794321
 19.1320444713705555 20.1686809594056555 22.4733636201306979
 19.1320444713705555 20.1686809594056555 25.2452222023819637
 19.1320444713705555 20.1686809594056555 28.0170807846332295
 16.8490333535279149 18.5099762903839213 11.3859292911256329
 16.8490333535279149 18.5099762903839213 14.1577878733768987
 16.8490333535279149 18.5099762903839213 16.9296464556281663
 16.8490333535279149 18.5099762903839213 19.7015050378794321
 16.8490333535279149 18.5099762903839213 22.4733636201306979
 16.8490333535279149 18.5099762903839213 25.2452222023819637
 16.8490333535279149 18.5099762903839213 28.0170807846332295
 17.7210660038499128 15.8261357586086060 11.3859292911256329
 17.7210660038499128 15.8261357586086060 14.1577878733768987
 17.7210660038499128 15.8261357586086060 16.9296464556281663
 17.7210660038499128 15.8261357586086060 19.7015050378794321
 17.7210660038499128 15.8261357586086060 22.4733636201306979
 17.7210660038499128 15.8261357586086060 25.2452222023819637
 17.7210660038499128 15.8261357586086060 28.0170807846332295
 20.5430229388911982 15.8261357586086060 11.3859292911256329
 20.5430229388911982 15.8261357586086060 14.1577878733768987
 20.5430229388911982 15.8261357586086060 16.9296464556281663
 20.5430229388911982 15.8261357586086060 19.7015050378794321
 20.5430229388911982 15.8261357586086060 22.4733636201306979
 20.5430229388911982 15.8261357586086060 25.2452222023819637
 20.5430229388911982 15.8261357586086060 28.0170807846332295
 23.6980667070558333 19.2517715692896978 12.7718585822512658
 23.6980667070558333 19.2517715692896978 15.5437171645025334
 23.6980667070558333 19.2517715692896978 18.3155757467538010
 23.6980667070558333 19.2517715692896978 21.0874343290050668
 23.6980667070558333 19.2517715692896978 23.8592929112563326
 23.6980667070558333 19.2517715692896978 26.6311514935075984
 21.4150555892131962 20.9104762383114320 12.7718585822512658
 21.4150555892131962 20.9104762383114320 15.5437171645025334
 21.4150555892131962 20.9104762383114320 18.3155757467538010
 21.4150555892131962 20.9104762383114320 21.0874343290050668
 21.4150555892131962 20.9104762383114320 23.8592929112563326
 21.4150555892131962 20.9104762383114320 26.6311514935075984
 19.1320444713705555 22.5691809073331697 12.7718585822512658
 19.1320444713705555 22.5691809073331697 15.5437171645025334
 19.1320444713705555 22.5691809073331697 18.3155757467538010
 19.1320444713705555 22.5691809073331697 21.0874343290050668
 19.1320444713705555 22.5691809073331697 23.8592929112563326
 19.1320444713705555 22.5691809073331697 26.6311514935075984
 16.8490333535279149 20.9104762383114320 12.7718585822512658
 16.8490333535279149 20.9104762383114320 15.5437171645025334
 16.8490333535279149 20.9104762383114320 18.3155757467538010
 16.8490333535279149 20.9104762383114320 21.0874343290050668
 16.8490333535279149 20.9104762383114320 23.8592929112563326
 16.8490333535279149 20.9104762383114320 26.6311514935075984
 14.5660222356852778 19.2517715692896978 12.7718585822512658
 14.5660222356852778 19.2517715692896978 15.5437171645025334
 14.5660222356852778 19.2517715692896978 18.3155757467538010
 14.5660222356852778 19.2517715692896978 21.0874343290050668
 14.5660222356852778 19.2517715692896978 23.8592929112563326
 14.5660222356852778 19.2517715692896978 26.6311514935075984
 15.4380548860072722 16.5679310375143842 12.7718585822512658
 15.4380548860072722 16.5679310375143842 15.5437171645025334
 15.4380548860072722 16.5679310375143842 18.3155757467538010
 15.4380548860072722 16.5679310375143842 21.0874343290050668
 15.4380548860072722 16.5679310375143842 23.8592929112563326
 15.4380548860072722 16.5679310375143842 26.6311514935075984
 16.3100875363292701 13.8840905057390707 12.7718585822512658
 16.3100875363292701 13.8840905057390707 15.5437171645025334
 16.3100875363292701 13.8840905057390707 18.3155757467538010
 16.3100875363292701 13.8840905057390707 21.0874343290050668
 16.3100875363292701 13.8840905057390707 23.8592929112563326
 16.3100875363292701 13.8840905057390707 26.6311514935075984
 19.1320444713705555 13.8840905057390707 12.7718585822512658
 19.1320444713705555 13.8840905057390707 15.5437171645025334
 19.1320444713705555 13.8840905057390707 18.3155757467538010
 19.1320444713705555 13.8840905057390707 21.0874343290050668
 19.1320444713705555 13.8840905057390707 23.8592929112563326
 19.1320444713705555 13.8840905057390707 26.6311514935075984
 21.9540014064118409 13.8840905057390707 12.7718585822512658
 21.9540014064118409 13.8840905057390707 15.5437171645025334
 21.9540014064118409 13.8840905057390707 18.3155757467538010
 21.9540014064118409 13.8840905057390707 21.0874343290050668
 21.9540014064118409 13.8840905057390707 23.8592929112563326
 21.9540014064118409 13.8840905057390707 26.6311514935075984
 22.8260340567338389 16.5679310375143842 12.7718585822512658
 22.8260340567338389 16.5679310375143842 15.5437171645025334
 22.8260340567338389 16.5679310375143842 18.3155757467538010
 22.8260340567338389 16.5679310375143842 21.0874343290050668
 22.8260340567338389 16.5679310375143842 23.8592929112563326
 22.8260340567338389 16.5679310375143842 26.6311514935075984
 25.9810778248984739 19.9935668481954743 14.1577878733769005
 25.9810778248984739 19.9935668481954743 16.9296464556281663
 25.9810778248984739 19.9935668481954743 19.7015050378794321
 25.9810778248984739 19.9935668481954743 22.4733636201306979
 25.9810778248984739 19.9935668481954743 25.2452222023819637
 23.6980667070558333 21.6522715172172120 14.1577878733769005
 23.6980667070558333 21.6522715172172120 16.9296464556281663
 23.6980667070558333 21.6522715172172120 19.7015050378794321
 23.6980667070558333 21.6522715172172120 22.4733636201306979
 23.6980667070558333 21.6522715172172120 25.2452222023819637
 21.4150555892131962 23.3109761862389462 14.1577878733769005
 21.4150555892131962 23.3109761862389462 16.9296464556281663
 21.4150555892131962 23.3109761862389462 19.7015050378794321
 21.4150555892131962 23.3109761862389462 22.4733636201306979
 21.4150555892131962 23.3109761862389462 25.2452222023819637
 19.1320444713705555 24.9696808552606839 14.1577878733769005
 19.1320444713705555 24.9696808552606839 16.9296464556281663
 19.1320444713705555 24.9696808552606839 19.7015050378794321
 19.1320444713705555 24.9696808552606839 22.4733636201306979
 19.1320444713705555 24.9696808552606839 25.2452222023819637
 16.8490333535279149 23.3109761862389462 14.1577878733769005
 16.8490333535279149 23.3109761862389462 16.9296464556281663
 16.8490333535279149 23.3109761862389462 19.7015050378794321
 16.8490333535279149 23.3109761862389462 22.4733636201306979
 16.8490333535279149 23.3109761862389462 25.2452222023819637
 14.5660222356852778 21.6522715172172120 14.1577878733769005
 14.5660222356852778 21.6522715172172120 16.9296464556281663
 14.5660222356852778 21.6522715172172120 19.7015050378794321
 14.5660222356852778 21.6522715172172120 22.4733636201306979
 14.5660222356852778 21.6522715172172120 25.2452222023819637
 12.2830111178426371 19.9935668481954778 14.1577878733769005
 12.2830111178426371 19.9935668481954778 16.9296464556281663
 12.2830111178426371 19.9935668481954778 19.7015050378794321
 12.2830111178426371 19.9935668481954778 22.4733636201306979
 12.2830111178426371 19.9935668481954778 25.2452222023819637
 13.1550437681646351 17.3097263164201642 14.1577878733769005
 13.1550437681646351 17.3097263164201642 16.9296464556281663
 13.1550437681646351 17.3097263164201642 19.7015050378794321
 13.1550437681646351 17.3097263164201642 22.4733636201306979
 13.1550437681646351 17.3097263164201642 25.2452222023819637
 14.0270764184866294 14.6258857846448507 14.1577878733769005
 14.0270764184866294 14.6258857846448507 16.9296464556281663
 14.0270764184866294 14.6258857846448507 19.7015050378794321
 14.0270764184866294 14.6258857846448507 22.4733636201306979
 14.0270764184866294 14.6258857846448507 25.2452222023819637
 14.8991090688086274 11.9420452528695371 14.1577878733769005
 14.8991090688086274 11.9420452528695371 16.9296464556281663
 14.8991090688086274 11.9420452528695371 19.7015050378794321
 14.8991090688086274 11.9420452528695371 22.4733636201306979
 14.8991090688086274 11.9420452528695371 25.2452222023819637
 17.7210660038499128 11.9420452528695353 14.1577878733769005
 17.7210660038499128 11.9420452528695353 16.9296464556281663
 17.7210660038499128 11.9420452528695353 19.7015050378794321
 17.7210660038499128 11.9420452528695353 22.4733636201306979
 17.7210660038499128 11.9420452528695353 25.2452222023819637
 20.5430229388911982 11.9420452528695336 14.1577878733769005
 20.5430229388911982 11.9420452528695336 16.9296464556281663
 20.5430229388911982 11.9420452528695336 19.7015050378794321
 20.5430229388911982 11.9420452528695336 22.4733636201306979
 20.5430229388911982 11.9420452528695336 25.2452222023819637
 23.3649798739324837 11.9420452528695336 14.1577878733769005
 23.3649798739324837 11.9420452528695336 16.9296464556281663
 23.3649798739324837 11.9420452528695336 19.7015050378794321
 23.3649798739324837 11.9420452528695336 22.4733636201306979
 23.3649798739324837 11.9420452528695336 25.2452222023819637
 24.2370125242544781 14.6258857846448471 14.1577878733769005
 24.2370125242544781 14.6258857846448471 16.9296464556281663
 24.2370125242544781 14.6258857846448471 19.7015050378794321
 24.2370125242544781 14.6258857846448471 22.4733636201306979
 24.2370125242544781 14.6258857846448471 25.2452222023819637
 25.1090451745764760 17.3097263164201607 14.1577878733769005
 25.1090451745764760 17.3097263164201607 16.9296464556281663
 25.1090451745764760 17.3097263164201607 19.7015050378794321
 25.1090451745764760 17.3097263164201607 22.4733636201306979
 25.1090451745764760 17.3097263164201607 25.2452222023819637
 28.2640889427411111 20.7353621271012507 15.5437171645025316
 28.2640889427411111 20.7353621271012507 18.3155757467537974
 28.2640889427411111 20.7353621271012507 21.0874343290050632
 28.2640889427411111 20.7353621271012507 23.8592929112563326
 25.9810778248984739 22.3940667961229884 15.5437171645025316
 25.9810778248984739 22.3940667961229884 18.3155757467537974
 25.9810778248984739 22.3940667961229884 21.0874343290050632
 25.9810778248984739 22.3940667961229884 23.8592929112563326
 23.6980667070558333 24.0527714651447262 15.5437171645025316
 23.6980667070558333 24.0527714651447262 18.3155757467537974
 23.6980667070558333 24.0527714651447262 21.0874343290050632
 23.6980667070558333 24.0527714651447262 23.8592929112563326
 21.4150555892131962 25.7114761341664604 15.5437171645025316
 21.4150555892131962 25.7114761341664604 18.3155757467537974
 21.4150555892131962 25.7114761341664604 21.0874343290050632
 21.4150555892131962 25.7114761341664604 23.8592929112563326
 19.1320444713705555 27.3701808031881981 15.5437171645025316
 19.1320444713705555 27.3701808031881981 18.3155757467537974
 19.1320444713705555 27.3701808031881981 21.0874343290050632
 19.1320444713705555 27.3701808031881981 23.8592929112563326
 16.8490333535279149 25.7114761341664604 15.5437171645025316
 16.8490333535279149 25.7114761341664604 18.3155757467537974
 16.8490333535279149 25.7114761341664604 21.0874343290050632
 16.8490333535279149 25.7114761341664604 23.8592929112563326
 14.5660222356852778 24.0527714651447262 15.5437171645025316
 14.5660222356852778 24.0527714651447262 18.3155757467537974
 14.5660222356852778 24.0527714651447262 21.0874343290050632
 14.5660222356852778 24.0527714651447262 23.8592929112563326
 12.2830111178426371 22.3940667961229920 15.5437171645025316
 12.2830111178426371 22.3940667961229920 18.3155757467537974
 12.2830111178426371 22.3940667961229920 21.0874343290050632
 12.2830111178426371 22.3940667961229920 23.8592929112563326
  9.9999999999999982 20.7353621271012543 15.5437171645025316
  9.9999999999999982 20.7353621271012543 18.3155757467537974
  9.9999999999999982 20.7353621271012543 21.0874343290050632
  9.9999999999999982 20.7353621271012543 23.8592929112563326
 10.8720326503219944 18.0515215953259407 15.5437171645025316
 10.8720326503219944 18.0515215953259407 18.3155757467537974
 10.8720326503219944 18.0515215953259407 21.0874343290050632
 10.8720326503219944 18.0515215953259407 23.8592929112563326
 11.7440653006439906 15.3676810635506271 15.5437171645025316
 11.7440653006439906 15.3676810635506271 18.3155757467537974
 11.7440653006439906 15.3676810635506271 21.0874343290050632
 11.7440653006439906 15.3676810635506271 23.8592929112563326
 12.6160979509659867 12.6838405317753136 15.5437171645025316
 12.6160979509659867 12.6838405317753136 18.3155757467537974
 12.6160979509659867 12.6838405317753136 21.0874343290050632
 12.6160979509659867 12.6838405317753136 23.8592929112563326
 13.4881306012879847 10.0000000000000000 15.5437171645025316
 13.4881306012879847 10.0000000000000000 18.3155757467537974
 13.4881306012879847 10.0000000000000000 21.0874343290050632
 13.4881306012879847 10.0000000000000000 23.8592929112563326
 16.3100875363292701 10.0000000000000000 15.5437171645025316
 16.3100875363292701 10.0000000000000000 18.3155757467537974
 16.3100875363292701 10.0000000000000000 21.0874343290050632
 16.3100875363292701 10.0000000000000000 23.8592929112563326
 19.1320444713705555 10.0000000000000000 15.5437171645025316
 19.1320444713705555 10.0000000000000000 18.3155757467537974
 19.1320444713705555 10.0000000000000000 21.0874343290050632
 19.1320444713705555 10.0000000000000000 23.8592929112563326
 21.9540014064118409  9.9999999999999982 15.5437171645025316
 21.9540014064118409  9.9999999999999982 18.3155757467537974
 21.9540014064118409  9.9999999999999982 21.0874343290050632
 21.9540014064118409  9.9999999999999982 23.8592929112563326
 24.7759583414531228  9.9999999999999982 15.5437171645025316
 24.7759583414531228  9.9999999999999982 18.3155757467537974
 24.7759583414531228  9.9999999999999982 21.0874343290050632
 24.7759583414531228  9.9999999999999982 23.8592929112563326
 25.6479909917751208 12.6838405317753100 15.5437171645025316
 25.6479909917751208 12.6838405317753100 18.3155757467537974
 25.6479909917751208 12.6838405317753100 21.0874343290050632
 25.6479909917751208 12.6838405317753100 23.8592929112563326
 26.5200236420971187 15.3676810635506254 15.5437171645025316
 26.5200236420971187 15.3676810635506254 18.3155757467537974
 26.5200236420971187 15.3676810635506254 21.0874343290050632
 26.5200236420971187 15.3676810635506254 23.8592929112563326
 27.3920562924191167 18.0515215953259371 15.5437171645025316
 27.3920562924191167 18.0515215953259371 18.3155757467537974
 27.3920562924191167 18.0515215953259371 21.0874343290050632
 27.3920562924191167 18.0515215953259371 23.8592929112563326
