Pt 
 1.0000000000000000
    39.3419805771384077    0.0000000000000000    0.0000000000000000
     0.0000000000000000   38.3953166659417775    0.0000000000000000
     0.0000000000000000    0.0000000000000000   42.1748686580101264
 Pt 
 324
Cartesian
 19.6709902885692074 19.7102262643476784  9.9999999999999982
 19.6709902885692074 19.7102262643476784 12.7718585822512640
 19.6709902885692074 19.7102262643476784 15.5437171645025316
 19.6709902885692074 19.7102262643476784 18.3155757467537974
 19.6709902885692074 19.7102262643476784 21.0874343290050632
 19.6709902885692074 19.7102262643476784 23.8592929112563290
 19.6709902885692074 19.7102262643476784 26.6311514935075948
 19.6709902885692074 19.7102262643476784 29.4030100757588642
 19.6709902885692074 19.7102262643476784 32.1748686580101264
 21.9540014064118481 20.4520215432534549 11.3859292911256311
 21.9540014064118481 20.4520215432534549 14.1577878733768969
 21.9540014064118481 20.4520215432534549 16.9296464556281627
 21.9540014064118481 20.4520215432534549 19.7015050378794285
 21.9540014064118481 20.4520215432534549 22.4733636201306979
 21.9540014064118481 20.4520215432534549 25.2452222023819601
 21.9540014064118481 20.4520215432534549 28.0170807846332295
 21.9540014064118481 20.4520215432534549 30.7889393668844953
 19.6709902885692074 22.1107262122751926 11.3859292911256311
 19.6709902885692074 22.1107262122751926 14.1577878733768969
 19.6709902885692074 22.1107262122751926 16.9296464556281627
 19.6709902885692074 22.1107262122751926 19.7015050378794285
 19.6709902885692074 22.1107262122751926 22.4733636201306979
 19.6709902885692074 22.1107262122751926 25.2452222023819601
 19.6709902885692074 22.1107262122751926 28.0170807846332295
 19.6709902885692074 22.1107262122751926 30.7889393668844953
 17.3879791707265667 20.4520215432534584 11.3859292911256311
 17.3879791707265667 20.4520215432534584 14.1577878733768969
 17.3879791707265667 20.4520215432534584 16.9296464556281627
 17.3879791707265667 20.4520215432534584 19.7015050378794285
 17.3879791707265667 20.4520215432534584 22.4733636201306979
 17.3879791707265667 20.4520215432534584 25.2452222023819601
 17.3879791707265667 20.4520215432534584 28.0170807846332295
 17.3879791707265667 20.4520215432534584 30.7889393668844953
 18.2600118210485647 17.7681810114781449 11.3859292911256311
 18.2600118210485647 17.7681810114781449 14.1577878733768969
 18.2600118210485647 17.7681810114781449 16.9296464556281627
 18.2600118210485647 17.7681810114781449 19.7015050378794285
 18.2600118210485647 17.7681810114781449 22.4733636201306979
 18.2600118210485647 17.7681810114781449 25.2452222023819601
 18.2600118210485647 17.7681810114781449 28.0170807846332295
 18.2600118210485647 17.7681810114781449 30.7889393668844953
 21.0819687560898501 17.7681810114781413 11.3859292911256311
 21.0819687560898501 17.7681810114781413 14.1577878733768969
 21.0819687560898501 17.7681810114781413 16.9296464556281627
 21.0819687560898501 17.7681810114781413 19.7015050378794285
 21.0819687560898501 17.7681810114781413 22.4733636201306979
 21.0819687560898501 17.7681810114781413 25.2452222023819601
 21.0819687560898501 17.7681810114781413 28.0170807846332295
 21.0819687560898501 17.7681810114781413 30.7889393668844953
 24.2370125242544852 21.1938168221592349 12.7718585822512640
 24.2370125242544852 21.1938168221592349 15.5437171645025298
 24.2370125242544852 21.1938168221592349 18.3155757467537974
 24.2370125242544852 21.1938168221592349 21.0874343290050632
 24.2370125242544852 21.1938168221592349 23.8592929112563290
 24.2370125242544852 21.1938168221592349 26.6311514935075948
 24.2370125242544852 21.1938168221592349 29.4030100757588642
 21.9540014064118481 22.8525214911809691 12.7718585822512640
 21.9540014064118481 22.8525214911809691 15.5437171645025298
 21.9540014064118481 22.8525214911809691 18.3155757467537974
 21.9540014064118481 22.8525214911809691 21.0874343290050632
 21.9540014064118481 22.8525214911809691 23.8592929112563290
 21.9540014064118481 22.8525214911809691 26.6311514935075948
 21.9540014064118481 22.8525214911809691 29.4030100757588642
 19.6709902885692074 24.5112261602027068 12.7718585822512640
 19.6709902885692074 24.5112261602027068 15.5437171645025298
 19.6709902885692074 24.5112261602027068 18.3155757467537974
 19.6709902885692074 24.5112261602027068 21.0874343290050632
 19.6709902885692074 24.5112261602027068 23.8592929112563290
 19.6709902885692074 24.5112261602027068 26.6311514935075948
 19.6709902885692074 24.5112261602027068 29.4030100757588642
 17.3879791707265667 22.8525214911809726 12.7718585822512640
 17.3879791707265667 22.8525214911809726 15.5437171645025298
 17.3879791707265667 22.8525214911809726 18.3155757467537974
 17.3879791707265667 22.8525214911809726 21.0874343290050632
 17.3879791707265667 22.8525214911809726 23.8592929112563290
 17.3879791707265667 22.8525214911809726 26.6311514935075948
 17.3879791707265667 22.8525214911809726 29.4030100757588642
 15.1049680528839296 21.1938168221592349 12.7718585822512640
 15.1049680528839296 21.1938168221592349 15.5437171645025298
 15.1049680528839296 21.1938168221592349 18.3155757467537974
 15.1049680528839296 21.1938168221592349 21.0874343290050632
 15.1049680528839296 21.1938168221592349 23.8592929112563290
 15.1049680528839296 21.1938168221592349 26.6311514935075948
 15.1049680528839296 21.1938168221592349 29.4030100757588642
 15.9770007032059240 18.5099762903839213 12.7718585822512640
 15.9770007032059240 18.5099762903839213 15.5437171645025298
 15.9770007032059240 18.5099762903839213 18.3155757467537974
 15.9770007032059240 18.5099762903839213 21.0874343290050632
 15.9770007032059240 18.5099762903839213 23.8592929112563290
 15.9770007032059240 18.5099762903839213 26.6311514935075948
 15.9770007032059240 18.5099762903839213 29.4030100757588642
 16.8490333535279220 15.8261357586086078 12.7718585822512640
 16.8490333535279220 15.8261357586086078 15.5437171645025298
 16.8490333535279220 15.8261357586086078 18.3155757467537974
 16.8490333535279220 15.8261357586086078 21.0874343290050632
 16.8490333535279220 15.8261357586086078 23.8592929112563290
 16.8490333535279220 15.8261357586086078 26.6311514935075948
 16.8490333535279220 15.8261357586086078 29.4030100757588642
 19.6709902885692074 15.8261357586086078 12.7718585822512640
 19.6709902885692074 15.8261357586086078 15.5437171645025298
 19.6709902885692074 15.8261357586086078 18.3155757467537974
 19.6709902885692074 15.8261357586086078 21.0874343290050632
 19.6709902885692074 15.8261357586086078 23.8592929112563290
 19.6709902885692074 15.8261357586086078 26.6311514935075948
 19.6709902885692074 15.8261357586086078 29.4030100757588642
 22.4929472236104928 15.8261357586086078 12.7718585822512640
 22.4929472236104928 15.8261357586086078 15.5437171645025298
 22.4929472236104928 15.8261357586086078 18.3155757467537974
 22.4929472236104928 15.8261357586086078 21.0874343290050632
 22.4929472236104928 15.8261357586086078 23.8592929112563290
 22.4929472236104928 15.8261357586086078 26.6311514935075948
 22.4929472236104928 15.8261357586086078 29.4030100757588642
 23.3649798739324908 18.5099762903839213 12.7718585822512640
 23.3649798739324908 18.5099762903839213 15.5437171645025298
 23.3649798739324908 18.5099762903839213 18.3155757467537974
 23.3649798739324908 18.5099762903839213 21.0874343290050632
 23.3649798739324908 18.5099762903839213 23.8592929112563290
 23.3649798739324908 18.5099762903839213 26.6311514935075948
 23.3649798739324908 18.5099762903839213 29.4030100757588642
 26.5200236420971258 21.9356121010650114 14.1577878733768969
 26.5200236420971258 21.9356121010650114 16.9296464556281663
 26.5200236420971258 21.9356121010650114 19.7015050378794285
 26.5200236420971258 21.9356121010650114 22.4733636201306979
 26.5200236420971258 21.9356121010650114 25.2452222023819637
 26.5200236420971258 21.9356121010650114 28.0170807846332295
 24.2370125242544852 23.5943167700867491 14.1577878733768969
 24.2370125242544852 23.5943167700867491 16.9296464556281663
 24.2370125242544852 23.5943167700867491 19.7015050378794285
 24.2370125242544852 23.5943167700867491 22.4733636201306979
 24.2370125242544852 23.5943167700867491 25.2452222023819637
 24.2370125242544852 23.5943167700867491 28.0170807846332295
 21.9540014064118481 25.2530214391084833 14.1577878733768969
 21.9540014064118481 25.2530214391084833 16.9296464556281663
 21.9540014064118481 25.2530214391084833 19.7015050378794285
 21.9540014064118481 25.2530214391084833 22.4733636201306979
 21.9540014064118481 25.2530214391084833 25.2452222023819637
 21.9540014064118481 25.2530214391084833 28.0170807846332295
 19.6709902885692074 26.9117261081302210 14.1577878733768969
 19.6709902885692074 26.9117261081302210 16.9296464556281663
 19.6709902885692074 26.9117261081302210 19.7015050378794285
 19.6709902885692074 26.9117261081302210 22.4733636201306979
 19.6709902885692074 26.9117261081302210 25.2452222023819637
 19.6709902885692074 26.9117261081302210 28.0170807846332295
 17.3879791707265667 25.2530214391084868 14.1577878733768969
 17.3879791707265667 25.2530214391084868 16.9296464556281663
 17.3879791707265667 25.2530214391084868 19.7015050378794285
 17.3879791707265667 25.2530214391084868 22.4733636201306979
 17.3879791707265667 25.2530214391084868 25.2452222023819637
 17.3879791707265667 25.2530214391084868 28.0170807846332295
 15.1049680528839296 23.5943167700867491 14.1577878733768969
 15.1049680528839296 23.5943167700867491 16.9296464556281663
 15.1049680528839296 23.5943167700867491 19.7015050378794285
 15.1049680528839296 23.5943167700867491 22.4733636201306979
 15.1049680528839296 23.5943167700867491 25.2452222023819637
 15.1049680528839296 23.5943167700867491 28.0170807846332295
 12.8219569350412890 21.9356121010650149 14.1577878733768969
 12.8219569350412890 21.9356121010650149 16.9296464556281663
 12.8219569350412890 21.9356121010650149 19.7015050378794285
 12.8219569350412890 21.9356121010650149 22.4733636201306979
 12.8219569350412890 21.9356121010650149 25.2452222023819637
 12.8219569350412890 21.9356121010650149 28.0170807846332295
 13.6939895853632869 19.2517715692897013 14.1577878733768969
 13.6939895853632869 19.2517715692897013 16.9296464556281663
 13.6939895853632869 19.2517715692897013 19.7015050378794285
 13.6939895853632869 19.2517715692897013 22.4733636201306979
 13.6939895853632869 19.2517715692897013 25.2452222023819637
 13.6939895853632869 19.2517715692897013 28.0170807846332295
 14.5660222356852813 16.5679310375143878 14.1577878733768969
 14.5660222356852813 16.5679310375143878 16.9296464556281663
 14.5660222356852813 16.5679310375143878 19.7015050378794285
 14.5660222356852813 16.5679310375143878 22.4733636201306979
 14.5660222356852813 16.5679310375143878 25.2452222023819637
 14.5660222356852813 16.5679310375143878 28.0170807846332295
 15.4380548860072793 13.8840905057390742 14.1577878733768969
 15.4380548860072793 13.8840905057390742 16.9296464556281663
 15.4380548860072793 13.8840905057390742 19.7015050378794285
 15.4380548860072793 13.8840905057390742 22.4733636201306979
 15.4380548860072793 13.8840905057390742 25.2452222023819637
 15.4380548860072793 13.8840905057390742 28.0170807846332295
 18.2600118210485647 13.8840905057390724 14.1577878733768969
 18.2600118210485647 13.8840905057390724 16.9296464556281663
 18.2600118210485647 13.8840905057390724 19.7015050378794285
 18.2600118210485647 13.8840905057390724 22.4733636201306979
 18.2600118210485647 13.8840905057390724 25.2452222023819637
 18.2600118210485647 13.8840905057390724 28.0170807846332295
 21.0819687560898501 13.8840905057390707 14.1577878733768969
 21.0819687560898501 13.8840905057390707 16.9296464556281663
 21.0819687560898501 13.8840905057390707 19.7015050378794285
 21.0819687560898501 13.8840905057390707 22.4733636201306979
 21.0819687560898501 13.8840905057390707 25.2452222023819637
 21.0819687560898501 13.8840905057390707 28.0170807846332295
 23.9039256911311355 13.8840905057390707 14.1577878733768969
 23.9039256911311355 13.8840905057390707 16.9296464556281663
 23.9039256911311355 13.8840905057390707 19.7015050378794285
 23.9039256911311355 13.8840905057390707 22.4733636201306979
 23.9039256911311355 13.8840905057390707 25.2452222023819637
 23.9039256911311355 13.8840905057390707 28.0170807846332295
 24.7759583414531299 16.5679310375143842 14.1577878733768969
 24.7759583414531299 16.5679310375143842 16.9296464556281663
 24.7759583414531299 16.5679310375143842 19.7015050378794285
 24.7759583414531299 16.5679310375143842 22.4733636201306979
 24.7759583414531299 16.5679310375143842 25.2452222023819637
 24.7759583414531299 16.5679310375143842 28.0170807846332295
 25.6479909917751279 19.2517715692896978 14.1577878733768969
 25.6479909917751279 19.2517715692896978 16.9296464556281663
 25.6479909917751279 19.2517715692896978 19.7015050378794285
 25.6479909917751279 19.2517715692896978 22.4733636201306979
 25.6479909917751279 19.2517715692896978 25.2452222023819637
 25.6479909917751279 19.2517715692896978 28.0170807846332295
 26.5200236420971258 24.3361120489925256 15.5437171645025316
 26.5200236420971258 24.3361120489925256 18.3155757467537974
 26.5200236420971258 24.3361120489925256 21.0874343290050632
 26.5200236420971258 24.3361120489925256 23.8592929112563290
 26.5200236420971258 24.3361120489925256 26.6311514935075948
 24.2370125242544852 25.9948167180142633 15.5437171645025316
 24.2370125242544852 25.9948167180142633 18.3155757467537974
 24.2370125242544852 25.9948167180142633 21.0874343290050632
 24.2370125242544852 25.9948167180142633 23.8592929112563290
 24.2370125242544852 25.9948167180142633 26.6311514935075948
 21.9540014064118481 27.6535213870359975 15.5437171645025316
 21.9540014064118481 27.6535213870359975 18.3155757467537974
 21.9540014064118481 27.6535213870359975 21.0874343290050632
 21.9540014064118481 27.6535213870359975 23.8592929112563290
 21.9540014064118481 27.6535213870359975 26.6311514935075948
 17.3879791707265667 27.6535213870360010 15.5437171645025316
 17.3879791707265667 27.6535213870360010 18.3155757467537974
 17.3879791707265667 27.6535213870360010 21.0874343290050632
 17.3879791707265667 27.6535213870360010 23.8592929112563290
 17.3879791707265667 27.6535213870360010 26.6311514935075948
 15.1049680528839296 25.9948167180142633 15.5437171645025316
 15.1049680528839296 25.9948167180142633 18.3155757467537974
 15.1049680528839296 25.9948167180142633 21.0874343290050632
 15.1049680528839296 25.9948167180142633 23.8592929112563290
 15.1049680528839296 25.9948167180142633 26.6311514935075948
 12.8219569350412890 24.3361120489925291 15.5437171645025316
 12.8219569350412890 24.3361120489925291 18.3155757467537974
 12.8219569350412890 24.3361120489925291 21.0874343290050632
 12.8219569350412890 24.3361120489925291 23.8592929112563290
 12.8219569350412890 24.3361120489925291 26.6311514935075948
 11.4109784675206463 19.9935668481954778 15.5437171645025316
 11.4109784675206463 19.9935668481954778 18.3155757467537974
 11.4109784675206463 19.9935668481954778 21.0874343290050632
 11.4109784675206463 19.9935668481954778 23.8592929112563290
 11.4109784675206463 19.9935668481954778 26.6311514935075948
 12.2830111178426424 17.3097263164201642 15.5437171645025316
 12.2830111178426424 17.3097263164201642 18.3155757467537974
 12.2830111178426424 17.3097263164201642 21.0874343290050632
 12.2830111178426424 17.3097263164201642 23.8592929112563290
 12.2830111178426424 17.3097263164201642 26.6311514935075948
 13.1550437681646386 14.6258857846448507 15.5437171645025316
 13.1550437681646386 14.6258857846448507 18.3155757467537974
 13.1550437681646386 14.6258857846448507 21.0874343290050632
 13.1550437681646386 14.6258857846448507 23.8592929112563290
 13.1550437681646386 14.6258857846448507 26.6311514935075948
 16.8490333535279220 11.9420452528695371 15.5437171645025316
 16.8490333535279220 11.9420452528695371 18.3155757467537974
 16.8490333535279220 11.9420452528695371 21.0874343290050632
 16.8490333535279220 11.9420452528695371 23.8592929112563290
 16.8490333535279220 11.9420452528695371 26.6311514935075948
 19.6709902885692074 11.9420452528695371 15.5437171645025316
 19.6709902885692074 11.9420452528695371 18.3155757467537974
 19.6709902885692074 11.9420452528695371 21.0874343290050632
 19.6709902885692074 11.9420452528695371 23.8592929112563290
 19.6709902885692074 11.9420452528695371 26.6311514935075948
 22.4929472236104928 11.9420452528695353 15.5437171645025316
 22.4929472236104928 11.9420452528695353 18.3155757467537974
 22.4929472236104928 11.9420452528695353 21.0874343290050632
 22.4929472236104928 11.9420452528695353 23.8592929112563290
 22.4929472236104928 11.9420452528695353 26.6311514935075948
 26.1869368089737726 14.6258857846448471 15.5437171645025316
 26.1869368089737726 14.6258857846448471 18.3155757467537974
 26.1869368089737726 14.6258857846448471 21.0874343290050632
 26.1869368089737726 14.6258857846448471 23.8592929112563290
 26.1869368089737726 14.6258857846448471 26.6311514935075948
 27.0589694592957706 17.3097263164201607 15.5437171645025316
 27.0589694592957706 17.3097263164201607 18.3155757467537974
 27.0589694592957706 17.3097263164201607 21.0874343290050632
 27.0589694592957706 17.3097263164201607 23.8592929112563290
 27.0589694592957706 17.3097263164201607 26.6311514935075948
 27.9310021096177685 19.9935668481954743 15.5437171645025316
 27.9310021096177685 19.9935668481954743 18.3155757467537974
 27.9310021096177685 19.9935668481954743 21.0874343290050632
 27.9310021096177685 19.9935668481954743 23.8592929112563290
 27.9310021096177685 19.9935668481954743 26.6311514935075948
 26.5200236420971258 26.7366119969200398 16.9296464556281627
 26.5200236420971258 26.7366119969200398 19.7015050378794285
 26.5200236420971258 26.7366119969200398 22.4733636201306979
 26.5200236420971258 26.7366119969200398 25.2452222023819637
 24.2370125242544852 28.3953166659417775 16.9296464556281627
 24.2370125242544852 28.3953166659417775 19.7015050378794285
 24.2370125242544852 28.3953166659417775 22.4733636201306979
 24.2370125242544852 28.3953166659417775 25.2452222023819637
 15.1049680528839296 28.3953166659417775 16.9296464556281627
 15.1049680528839296 28.3953166659417775 19.7015050378794285
 15.1049680528839296 28.3953166659417775 22.4733636201306979
 15.1049680528839296 28.3953166659417775 25.2452222023819637
 12.8219569350412890 26.7366119969200433 16.9296464556281627
 12.8219569350412890 26.7366119969200433 19.7015050378794285
 12.8219569350412890 26.7366119969200433 22.4733636201306979
 12.8219569350412890 26.7366119969200433 25.2452222023819637
 10.0000000000000036 18.0515215953259442 16.9296464556281627
 10.0000000000000036 18.0515215953259442 19.7015050378794285
 10.0000000000000036 18.0515215953259442 22.4733636201306979
 10.0000000000000036 18.0515215953259442 25.2452222023819637
 10.8720326503219997 15.3676810635506307 16.9296464556281627
 10.8720326503219997 15.3676810635506307 19.7015050378794285
 10.8720326503219997 15.3676810635506307 22.4733636201306979
 10.8720326503219997 15.3676810635506307 25.2452222023819637
 18.2600118210485611 10.0000000000000018 16.9296464556281627
 18.2600118210485611 10.0000000000000018 19.7015050378794285
 18.2600118210485611 10.0000000000000018 22.4733636201306979
 18.2600118210485611 10.0000000000000018 25.2452222023819637
 21.0819687560898466 10.0000000000000000 16.9296464556281627
 21.0819687560898466 10.0000000000000000 19.7015050378794285
 21.0819687560898466 10.0000000000000000 22.4733636201306979
 21.0819687560898466 10.0000000000000000 25.2452222023819637
 28.4699479268164133 15.3676810635506271 16.9296464556281627
 28.4699479268164133 15.3676810635506271 19.7015050378794285
 28.4699479268164133 15.3676810635506271 22.4733636201306979
 28.4699479268164133 15.3676810635506271 25.2452222023819637
 29.3419805771384077 18.0515215953259407 16.9296464556281627
 29.3419805771384077 18.0515215953259407 19.7015050378794285
 29.3419805771384077 18.0515215953259407 22.4733636201306979
 29.3419805771384077 18.0515215953259407 25.2452222023819637
