Pt 
 1.0000000000000000
    23.9200000000000017    0.0000000000000000    0.0000000000000000
     0.0000000000000000   23.9200000000000017    0.0000000000000000
     0.0000000000000000    0.0000000000000000   23.9200000000000017
 Pt 
   6
Cartesian
 10.0000000000000000 11.9600000000000009 11.9600000000000009
 11.9600000000000009 10.0000000000000000 11.9600000000000009
 11.9600000000000009 11.9600000000000009 10.0000000000000000
 11.9600000000000009 11.9600000000000009 13.9200000000000017
 11.9600000000000009 13.9200000000000017 11.9600000000000009
 13.9200000000000017 11.9600000000000009 11.9600000000000009
