Au 
 1.0000000000000000
    24.9082477928615731    0.0000000000000000    0.0000000000000000
     0.0000000000000000   24.9082477928615731    0.0000000000000000
     0.0000000000000000    0.0000000000000000   24.9082477928615731
 Au 
  13
Cartesian
 12.4541238964307865 12.4541238964307865 12.4541238964307865
 14.9082477928615731 12.4541238964307865 10.9373919158332349
 14.9082477928615731 12.4541238964307865 13.9708558770283382
 10.0000000000000000 12.4541238964307865 10.9373919158332349
 10.0000000000000000 12.4541238964307865 13.9708558770283382
 10.9373919158332349 14.9082477928615731 12.4541238964307865
 13.9708558770283382 14.9082477928615731 12.4541238964307865
 10.9373919158332349 10.0000000000000000 12.4541238964307865
 13.9708558770283382 10.0000000000000000 12.4541238964307865
 12.4541238964307865 10.9373919158332349 14.9082477928615731
 12.4541238964307865 13.9708558770283382 14.9082477928615731
 12.4541238964307865 10.9373919158332349 10.0000000000000000
 12.4541238964307865 13.9708558770283382 10.0000000000000000
