Pt 
 1.0000000000000000
    55.2800000000000011    0.0000000000000000    0.0000000000000000
     0.0000000000000000   55.2800000000000011    0.0000000000000000
     0.0000000000000000    0.0000000000000000   55.2800000000000011
 Pt 
 670
Cartesian
 10.0000000000000000 27.6400000000000006 27.6400000000000006
 11.9599999999999973 25.6799999999999997 27.6400000000000006
 11.9599999999999973 27.6400000000000006 25.6799999999999997
 11.9599999999999973 27.6400000000000006 29.5999999999999979
 11.9599999999999973 29.5999999999999979 27.6400000000000006
 13.9199999999999982 23.7199999999999989 27.6400000000000006
 15.8799999999999990 21.7599999999999980 27.6400000000000006
 15.8799999999999990 23.7199999999999989 25.6799999999999997
 15.8799999999999990 23.7199999999999989 29.5999999999999979
 13.9199999999999982 27.6400000000000006 23.7199999999999989
 15.8799999999999990 25.6799999999999997 23.7199999999999989
 15.8799999999999990 27.6400000000000006 21.7599999999999980
 13.9199999999999982 25.6799999999999997 25.6799999999999997
 13.9199999999999982 27.6400000000000006 27.6400000000000006
 15.8799999999999990 25.6799999999999997 27.6400000000000006
 15.8799999999999990 27.6400000000000006 25.6799999999999997
 13.9199999999999982 25.6799999999999997 29.5999999999999979
 13.9199999999999982 27.6400000000000006 31.5599999999999987
 15.8799999999999990 25.6799999999999997 31.5599999999999987
 15.8799999999999990 27.6400000000000006 29.5999999999999979
 15.8799999999999990 27.6400000000000006 33.5199999999999960
 15.8799999999999990 29.5999999999999979 23.7199999999999989
 13.9199999999999982 29.5999999999999979 25.6799999999999997
 13.9199999999999982 31.5599999999999987 27.6400000000000006
 15.8799999999999990 29.5999999999999979 27.6400000000000006
 15.8799999999999990 31.5599999999999987 25.6799999999999997
 13.9199999999999982 29.5999999999999979 29.5999999999999979
 15.8799999999999990 29.5999999999999979 31.5599999999999987
 15.8799999999999990 31.5599999999999987 29.5999999999999979
 15.8799999999999990 33.5199999999999960 27.6400000000000006
 17.8399999999999963 19.7999999999999972 27.6400000000000006
 19.7999999999999972 17.8399999999999963 27.6400000000000006
 19.7999999999999972 19.7999999999999972 25.6799999999999997
 19.7999999999999972 19.7999999999999972 29.5999999999999979
 17.8399999999999963 23.7199999999999989 23.7199999999999989
 19.7999999999999972 21.7599999999999980 23.7199999999999989
 19.7999999999999972 23.7199999999999989 21.7599999999999980
 17.8399999999999963 21.7599999999999980 25.6799999999999997
 17.8399999999999963 23.7199999999999989 27.6400000000000006
 19.7999999999999972 21.7599999999999980 27.6400000000000006
 19.7999999999999972 23.7199999999999989 25.6799999999999997
 17.8399999999999963 21.7599999999999980 29.5999999999999979
 17.8399999999999963 23.7199999999999989 31.5599999999999987
 19.7999999999999972 21.7599999999999980 31.5599999999999987
 19.7999999999999972 23.7199999999999989 29.5999999999999979
 19.7999999999999972 23.7199999999999989 33.5199999999999960
 17.8399999999999963 27.6400000000000006 19.7999999999999972
 19.7999999999999972 25.6799999999999997 19.7999999999999972
 19.7999999999999972 27.6400000000000006 17.8399999999999963
 17.8399999999999963 25.6799999999999997 21.7599999999999980
 17.8399999999999963 27.6400000000000006 23.7199999999999989
 19.7999999999999972 25.6799999999999997 23.7199999999999989
 19.7999999999999972 27.6400000000000006 21.7599999999999980
 17.8399999999999963 25.6799999999999997 25.6799999999999997
 17.8399999999999963 27.6400000000000006 27.6400000000000006
 19.7999999999999972 25.6799999999999997 27.6400000000000006
 19.7999999999999972 27.6400000000000006 25.6799999999999997
 17.8399999999999963 25.6799999999999997 29.5999999999999979
 17.8399999999999963 27.6400000000000006 31.5599999999999987
 19.7999999999999972 25.6799999999999997 31.5599999999999987
 19.7999999999999972 27.6400000000000006 29.5999999999999979
 17.8399999999999963 25.6799999999999997 33.5199999999999960
 17.8399999999999963 27.6400000000000006 35.4799999999999969
 19.7999999999999972 25.6799999999999997 35.4799999999999969
 19.7999999999999972 27.6400000000000006 33.5199999999999960
 19.7999999999999972 27.6400000000000006 37.4399999999999977
 19.7999999999999972 29.5999999999999979 19.7999999999999972
 17.8399999999999963 29.5999999999999979 21.7599999999999980
 17.8399999999999963 31.5599999999999987 23.7199999999999989
 19.7999999999999972 29.5999999999999979 23.7199999999999989
 19.7999999999999972 31.5599999999999987 21.7599999999999980
 17.8399999999999963 29.5999999999999979 25.6799999999999997
 17.8399999999999963 31.5599999999999987 27.6400000000000006
 19.7999999999999972 29.5999999999999979 27.6400000000000006
 19.7999999999999972 31.5599999999999987 25.6799999999999997
 17.8399999999999963 29.5999999999999979 29.5999999999999979
 17.8399999999999963 31.5599999999999987 31.5599999999999987
 19.7999999999999972 29.5999999999999979 31.5599999999999987
 19.7999999999999972 31.5599999999999987 29.5999999999999979
 17.8399999999999963 29.5999999999999979 33.5199999999999960
 19.7999999999999972 29.5999999999999979 35.4799999999999969
 19.7999999999999972 31.5599999999999987 33.5199999999999960
 19.7999999999999972 33.5199999999999960 23.7199999999999989
 17.8399999999999963 33.5199999999999960 25.6799999999999997
 17.8399999999999963 35.4799999999999969 27.6400000000000006
 19.7999999999999972 33.5199999999999960 27.6400000000000006
 19.7999999999999972 35.4799999999999969 25.6799999999999997
 17.8399999999999963 33.5199999999999960 29.5999999999999979
 19.7999999999999972 33.5199999999999960 31.5599999999999987
 19.7999999999999972 35.4799999999999969 29.5999999999999979
 19.7999999999999972 37.4399999999999977 27.6400000000000006
 21.7599999999999980 15.8799999999999990 27.6400000000000006
 23.7199999999999989 13.9199999999999982 27.6400000000000006
 23.7199999999999989 15.8799999999999990 25.6799999999999997
 23.7199999999999989 15.8799999999999990 29.5999999999999979
 21.7599999999999980 19.7999999999999972 23.7199999999999989
 23.7199999999999989 17.8399999999999963 23.7199999999999989
 23.7199999999999989 19.7999999999999972 21.7599999999999980
 21.7599999999999980 17.8399999999999963 25.6799999999999997
 21.7599999999999980 19.7999999999999972 27.6400000000000006
 23.7199999999999989 17.8399999999999963 27.6400000000000006
 23.7199999999999989 19.7999999999999972 25.6799999999999997
 21.7599999999999980 17.8399999999999963 29.5999999999999979
 21.7599999999999980 19.7999999999999972 31.5599999999999987
 23.7199999999999989 17.8399999999999963 31.5599999999999987
 23.7199999999999989 19.7999999999999972 29.5999999999999979
 23.7199999999999989 19.7999999999999972 33.5199999999999960
 21.7599999999999980 23.7199999999999989 19.7999999999999972
 23.7199999999999989 21.7599999999999980 19.7999999999999972
 23.7199999999999989 23.7199999999999989 17.8399999999999963
 21.7599999999999980 21.7599999999999980 21.7599999999999980
 21.7599999999999980 23.7199999999999989 23.7199999999999989
 23.7199999999999989 21.7599999999999980 23.7199999999999989
 23.7199999999999989 23.7199999999999989 21.7599999999999980
 21.7599999999999980 21.7599999999999980 25.6799999999999997
 21.7599999999999980 23.7199999999999989 27.6400000000000006
 23.7199999999999989 21.7599999999999980 27.6400000000000006
 23.7199999999999989 23.7199999999999989 25.6799999999999997
 21.7599999999999980 21.7599999999999980 29.5999999999999979
 21.7599999999999980 23.7199999999999989 31.5599999999999987
 23.7199999999999989 21.7599999999999980 31.5599999999999987
 23.7199999999999989 23.7199999999999989 29.5999999999999979
 21.7599999999999980 21.7599999999999980 33.5199999999999960
 21.7599999999999980 23.7199999999999989 35.4799999999999969
 23.7199999999999989 21.7599999999999980 35.4799999999999969
 23.7199999999999989 23.7199999999999989 33.5199999999999960
 23.7199999999999989 23.7199999999999989 37.4399999999999977
 21.7599999999999980 27.6400000000000006 15.8799999999999990
 23.7199999999999989 25.6799999999999997 15.8799999999999990
 23.7199999999999989 27.6400000000000006 13.9199999999999982
 21.7599999999999980 25.6799999999999997 17.8399999999999963
 21.7599999999999980 27.6400000000000006 19.7999999999999972
 23.7199999999999989 25.6799999999999997 19.7999999999999972
 23.7199999999999989 27.6400000000000006 17.8399999999999963
 21.7599999999999980 25.6799999999999997 21.7599999999999980
 21.7599999999999980 27.6400000000000006 23.7199999999999989
 23.7199999999999989 25.6799999999999997 23.7199999999999989
 23.7199999999999989 27.6400000000000006 21.7599999999999980
 21.7599999999999980 25.6799999999999997 25.6799999999999997
 21.7599999999999980 27.6400000000000006 27.6400000000000006
 23.7199999999999989 25.6799999999999997 27.6400000000000006
 23.7199999999999989 27.6400000000000006 25.6799999999999997
 21.7599999999999980 25.6799999999999997 29.5999999999999979
 21.7599999999999980 27.6400000000000006 31.5599999999999987
 23.7199999999999989 25.6799999999999997 31.5599999999999987
 23.7199999999999989 27.6400000000000006 29.5999999999999979
 21.7599999999999980 25.6799999999999997 33.5199999999999960
 21.7599999999999980 27.6400000000000006 35.4799999999999969
 23.7199999999999989 25.6799999999999997 35.4799999999999969
 23.7199999999999989 27.6400000000000006 33.5199999999999960
 21.7599999999999980 25.6799999999999997 37.4399999999999977
 21.7599999999999980 27.6400000000000006 39.3999999999999986
 23.7199999999999989 25.6799999999999997 39.3999999999999986
 23.7199999999999989 27.6400000000000006 37.4399999999999977
 23.7199999999999989 27.6400000000000006 41.3599999999999994
 23.7199999999999989 29.5999999999999979 15.8799999999999990
 21.7599999999999980 29.5999999999999979 17.8399999999999963
 21.7599999999999980 31.5599999999999987 19.7999999999999972
 23.7199999999999989 29.5999999999999979 19.7999999999999972
 23.7199999999999989 31.5599999999999987 17.8399999999999963
 21.7599999999999980 29.5999999999999979 21.7599999999999980
 21.7599999999999980 31.5599999999999987 23.7199999999999989
 23.7199999999999989 29.5999999999999979 23.7199999999999989
 23.7199999999999989 31.5599999999999987 21.7599999999999980
 21.7599999999999980 29.5999999999999979 25.6799999999999997
 21.7599999999999980 31.5599999999999987 27.6400000000000006
 23.7199999999999989 29.5999999999999979 27.6400000000000006
 23.7199999999999989 31.5599999999999987 25.6799999999999997
 21.7599999999999980 29.5999999999999979 29.5999999999999979
 21.7599999999999980 31.5599999999999987 31.5599999999999987
 23.7199999999999989 29.5999999999999979 31.5599999999999987
 23.7199999999999989 31.5599999999999987 29.5999999999999979
 21.7599999999999980 29.5999999999999979 33.5199999999999960
 21.7599999999999980 31.5599999999999987 35.4799999999999969
 23.7199999999999989 29.5999999999999979 35.4799999999999969
 23.7199999999999989 31.5599999999999987 33.5199999999999960
 21.7599999999999980 29.5999999999999979 37.4399999999999977
 23.7199999999999989 29.5999999999999979 39.3999999999999986
 23.7199999999999989 31.5599999999999987 37.4399999999999977
 23.7199999999999989 33.5199999999999960 19.7999999999999972
 21.7599999999999980 33.5199999999999960 21.7599999999999980
 21.7599999999999980 35.4799999999999969 23.7199999999999989
 23.7199999999999989 33.5199999999999960 23.7199999999999989
 23.7199999999999989 35.4799999999999969 21.7599999999999980
 21.7599999999999980 33.5199999999999960 25.6799999999999997
 21.7599999999999980 35.4799999999999969 27.6400000000000006
 23.7199999999999989 33.5199999999999960 27.6400000000000006
 23.7199999999999989 35.4799999999999969 25.6799999999999997
 21.7599999999999980 33.5199999999999960 29.5999999999999979
 21.7599999999999980 35.4799999999999969 31.5599999999999987
 23.7199999999999989 33.5199999999999960 31.5599999999999987
 23.7199999999999989 35.4799999999999969 29.5999999999999979
 21.7599999999999980 33.5199999999999960 33.5199999999999960
 23.7199999999999989 33.5199999999999960 35.4799999999999969
 23.7199999999999989 35.4799999999999969 33.5199999999999960
 23.7199999999999989 37.4399999999999977 23.7199999999999989
 21.7599999999999980 37.4399999999999977 25.6799999999999997
 21.7599999999999980 39.3999999999999986 27.6400000000000006
 23.7199999999999989 37.4399999999999977 27.6400000000000006
 23.7199999999999989 39.3999999999999986 25.6799999999999997
 21.7599999999999980 37.4399999999999977 29.5999999999999979
 23.7199999999999989 37.4399999999999977 31.5599999999999987
 23.7199999999999989 39.3999999999999986 29.5999999999999979
 23.7199999999999989 41.3599999999999994 27.6400000000000006
 25.6799999999999997 11.9599999999999973 27.6400000000000006
 27.6400000000000006 10.0000000000000000 27.6400000000000006
 27.6400000000000006 11.9599999999999973 25.6799999999999997
 27.6400000000000006 11.9599999999999973 29.5999999999999979
 25.6799999999999997 15.8799999999999990 23.7199999999999989
 27.6400000000000006 13.9199999999999982 23.7199999999999989
 27.6400000000000006 15.8799999999999990 21.7599999999999980
 25.6799999999999997 13.9199999999999982 25.6799999999999997
 25.6799999999999997 15.8799999999999990 27.6400000000000006
 27.6400000000000006 13.9199999999999982 27.6400000000000006
 27.6400000000000006 15.8799999999999990 25.6799999999999997
 25.6799999999999997 13.9199999999999982 29.5999999999999979
 25.6799999999999997 15.8799999999999990 31.5599999999999987
 27.6400000000000006 13.9199999999999982 31.5599999999999987
 27.6400000000000006 15.8799999999999990 29.5999999999999979
 27.6400000000000006 15.8799999999999990 33.5199999999999960
 25.6799999999999997 19.7999999999999972 19.7999999999999972
 27.6400000000000006 17.8399999999999963 19.7999999999999972
 27.6400000000000006 19.7999999999999972 17.8399999999999963
 25.6799999999999997 17.8399999999999963 21.7599999999999980
 25.6799999999999997 19.7999999999999972 23.7199999999999989
 27.6400000000000006 17.8399999999999963 23.7199999999999989
 27.6400000000000006 19.7999999999999972 21.7599999999999980
 25.6799999999999997 17.8399999999999963 25.6799999999999997
 25.6799999999999997 19.7999999999999972 27.6400000000000006
 27.6400000000000006 17.8399999999999963 27.6400000000000006
 27.6400000000000006 19.7999999999999972 25.6799999999999997
 25.6799999999999997 17.8399999999999963 29.5999999999999979
 25.6799999999999997 19.7999999999999972 31.5599999999999987
 27.6400000000000006 17.8399999999999963 31.5599999999999987
 27.6400000000000006 19.7999999999999972 29.5999999999999979
 25.6799999999999997 17.8399999999999963 33.5199999999999960
 25.6799999999999997 19.7999999999999972 35.4799999999999969
 27.6400000000000006 17.8399999999999963 35.4799999999999969
 27.6400000000000006 19.7999999999999972 33.5199999999999960
 27.6400000000000006 19.7999999999999972 37.4399999999999977
 25.6799999999999997 23.7199999999999989 15.8799999999999990
 27.6400000000000006 21.7599999999999980 15.8799999999999990
 27.6400000000000006 23.7199999999999989 13.9199999999999982
 25.6799999999999997 21.7599999999999980 17.8399999999999963
 25.6799999999999997 23.7199999999999989 19.7999999999999972
 27.6400000000000006 21.7599999999999980 19.7999999999999972
 27.6400000000000006 23.7199999999999989 17.8399999999999963
 25.6799999999999997 21.7599999999999980 21.7599999999999980
 25.6799999999999997 23.7199999999999989 23.7199999999999989
 27.6400000000000006 21.7599999999999980 23.7199999999999989
 27.6400000000000006 23.7199999999999989 21.7599999999999980
 25.6799999999999997 21.7599999999999980 25.6799999999999997
 25.6799999999999997 23.7199999999999989 27.6400000000000006
 27.6400000000000006 21.7599999999999980 27.6400000000000006
 27.6400000000000006 23.7199999999999989 25.6799999999999997
 25.6799999999999997 21.7599999999999980 29.5999999999999979
 25.6799999999999997 23.7199999999999989 31.5599999999999987
 27.6400000000000006 21.7599999999999980 31.5599999999999987
 27.6400000000000006 23.7199999999999989 29.5999999999999979
 25.6799999999999997 21.7599999999999980 33.5199999999999960
 25.6799999999999997 23.7199999999999989 35.4799999999999969
 27.6400000000000006 21.7599999999999980 35.4799999999999969
 27.6400000000000006 23.7199999999999989 33.5199999999999960
 25.6799999999999997 21.7599999999999980 37.4399999999999977
 25.6799999999999997 23.7199999999999989 39.3999999999999986
 27.6400000000000006 21.7599999999999980 39.3999999999999986
 27.6400000000000006 23.7199999999999989 37.4399999999999977
 27.6400000000000006 23.7199999999999989 41.3599999999999994
 25.6799999999999997 27.6400000000000006 11.9599999999999973
 27.6400000000000006 25.6799999999999997 11.9599999999999973
 27.6400000000000006 27.6400000000000006 10.0000000000000000
 25.6799999999999997 25.6799999999999997 13.9199999999999982
 25.6799999999999997 27.6400000000000006 15.8799999999999990
 27.6400000000000006 25.6799999999999997 15.8799999999999990
 27.6400000000000006 27.6400000000000006 13.9199999999999982
 25.6799999999999997 25.6799999999999997 17.8399999999999963
 25.6799999999999997 27.6400000000000006 19.7999999999999972
 27.6400000000000006 25.6799999999999997 19.7999999999999972
 27.6400000000000006 27.6400000000000006 17.8399999999999963
 25.6799999999999997 25.6799999999999997 21.7599999999999980
 25.6799999999999997 27.6400000000000006 23.7199999999999989
 27.6400000000000006 25.6799999999999997 23.7199999999999989
 27.6400000000000006 27.6400000000000006 21.7599999999999980
 25.6799999999999997 25.6799999999999997 25.6799999999999997
 25.6799999999999997 27.6400000000000006 27.6400000000000006
 27.6400000000000006 25.6799999999999997 27.6400000000000006
 27.6400000000000006 27.6400000000000006 25.6799999999999997
 25.6799999999999997 25.6799999999999997 29.5999999999999979
 25.6799999999999997 27.6400000000000006 31.5599999999999987
 27.6400000000000006 25.6799999999999997 31.5599999999999987
 27.6400000000000006 27.6400000000000006 29.5999999999999979
 25.6799999999999997 25.6799999999999997 33.5199999999999960
 25.6799999999999997 27.6400000000000006 35.4799999999999969
 27.6400000000000006 25.6799999999999997 35.4799999999999969
 27.6400000000000006 27.6400000000000006 33.5199999999999960
 25.6799999999999997 25.6799999999999997 37.4399999999999977
 25.6799999999999997 27.6400000000000006 39.3999999999999986
 27.6400000000000006 25.6799999999999997 39.3999999999999986
 27.6400000000000006 27.6400000000000006 37.4399999999999977
 25.6799999999999997 25.6799999999999997 41.3599999999999994
 25.6799999999999997 27.6400000000000006 43.3200000000000003
 27.6400000000000006 25.6799999999999997 43.3200000000000003
 27.6400000000000006 27.6400000000000006 41.3599999999999994
 27.6400000000000006 27.6400000000000006 45.2800000000000011
 27.6400000000000006 29.5999999999999979 11.9599999999999973
 25.6799999999999997 29.5999999999999979 13.9199999999999982
 25.6799999999999997 31.5599999999999987 15.8799999999999990
 27.6400000000000006 29.5999999999999979 15.8799999999999990
 27.6400000000000006 31.5599999999999987 13.9199999999999982
 25.6799999999999997 29.5999999999999979 17.8399999999999963
 25.6799999999999997 31.5599999999999987 19.7999999999999972
 27.6400000000000006 29.5999999999999979 19.7999999999999972
 27.6400000000000006 31.5599999999999987 17.8399999999999963
 25.6799999999999997 29.5999999999999979 21.7599999999999980
 25.6799999999999997 31.5599999999999987 23.7199999999999989
 27.6400000000000006 29.5999999999999979 23.7199999999999989
 27.6400000000000006 31.5599999999999987 21.7599999999999980
 25.6799999999999997 29.5999999999999979 25.6799999999999997
 25.6799999999999997 31.5599999999999987 27.6400000000000006
 27.6400000000000006 29.5999999999999979 27.6400000000000006
 27.6400000000000006 31.5599999999999987 25.6799999999999997
 25.6799999999999997 29.5999999999999979 29.5999999999999979
 25.6799999999999997 31.5599999999999987 31.5599999999999987
 27.6400000000000006 29.5999999999999979 31.5599999999999987
 27.6400000000000006 31.5599999999999987 29.5999999999999979
 25.6799999999999997 29.5999999999999979 33.5199999999999960
 25.6799999999999997 31.5599999999999987 35.4799999999999969
 27.6400000000000006 29.5999999999999979 35.4799999999999969
 27.6400000000000006 31.5599999999999987 33.5199999999999960
 25.6799999999999997 29.5999999999999979 37.4399999999999977
 25.6799999999999997 31.5599999999999987 39.3999999999999986
 27.6400000000000006 29.5999999999999979 39.3999999999999986
 27.6400000000000006 31.5599999999999987 37.4399999999999977
 25.6799999999999997 29.5999999999999979 41.3599999999999994
 27.6400000000000006 29.5999999999999979 43.3200000000000003
 27.6400000000000006 31.5599999999999987 41.3599999999999994
 27.6400000000000006 33.5199999999999960 15.8799999999999990
 25.6799999999999997 33.5199999999999960 17.8399999999999963
 25.6799999999999997 35.4799999999999969 19.7999999999999972
 27.6400000000000006 33.5199999999999960 19.7999999999999972
 27.6400000000000006 35.4799999999999969 17.8399999999999963
 25.6799999999999997 33.5199999999999960 21.7599999999999980
 25.6799999999999997 35.4799999999999969 23.7199999999999989
 27.6400000000000006 33.5199999999999960 23.7199999999999989
 27.6400000000000006 35.4799999999999969 21.7599999999999980
 25.6799999999999997 33.5199999999999960 25.6799999999999997
 25.6799999999999997 35.4799999999999969 27.6400000000000006
 27.6400000000000006 33.5199999999999960 27.6400000000000006
 27.6400000000000006 35.4799999999999969 25.6799999999999997
 25.6799999999999997 33.5199999999999960 29.5999999999999979
 25.6799999999999997 35.4799999999999969 31.5599999999999987
 27.6400000000000006 33.5199999999999960 31.5599999999999987
 27.6400000000000006 35.4799999999999969 29.5999999999999979
 25.6799999999999997 33.5199999999999960 33.5199999999999960
 25.6799999999999997 35.4799999999999969 35.4799999999999969
 27.6400000000000006 33.5199999999999960 35.4799999999999969
 27.6400000000000006 35.4799999999999969 33.5199999999999960
 25.6799999999999997 33.5199999999999960 37.4399999999999977
 27.6400000000000006 33.5199999999999960 39.3999999999999986
 27.6400000000000006 35.4799999999999969 37.4399999999999977
 27.6400000000000006 37.4399999999999977 19.7999999999999972
 25.6799999999999997 37.4399999999999977 21.7599999999999980
 25.6799999999999997 39.3999999999999986 23.7199999999999989
 27.6400000000000006 37.4399999999999977 23.7199999999999989
 27.6400000000000006 39.3999999999999986 21.7599999999999980
 25.6799999999999997 37.4399999999999977 25.6799999999999997
 25.6799999999999997 39.3999999999999986 27.6400000000000006
 27.6400000000000006 37.4399999999999977 27.6400000000000006
 27.6400000000000006 39.3999999999999986 25.6799999999999997
 25.6799999999999997 37.4399999999999977 29.5999999999999979
 25.6799999999999997 39.3999999999999986 31.5599999999999987
 27.6400000000000006 37.4399999999999977 31.5599999999999987
 27.6400000000000006 39.3999999999999986 29.5999999999999979
 25.6799999999999997 37.4399999999999977 33.5199999999999960
 27.6400000000000006 37.4399999999999977 35.4799999999999969
 27.6400000000000006 39.3999999999999986 33.5199999999999960
 27.6400000000000006 41.3599999999999994 23.7199999999999989
 25.6799999999999997 41.3599999999999994 25.6799999999999997
 25.6799999999999997 43.3200000000000003 27.6400000000000006
 27.6400000000000006 41.3599999999999994 27.6400000000000006
 27.6400000000000006 43.3200000000000003 25.6799999999999997
 25.6799999999999997 41.3599999999999994 29.5999999999999979
 27.6400000000000006 41.3599999999999994 31.5599999999999987
 27.6400000000000006 43.3200000000000003 29.5999999999999979
 27.6400000000000006 45.2800000000000011 27.6400000000000006
 29.5999999999999979 11.9599999999999973 27.6400000000000006
 29.5999999999999979 15.8799999999999990 23.7199999999999989
 29.5999999999999979 13.9199999999999982 25.6799999999999997
 29.5999999999999979 15.8799999999999990 27.6400000000000006
 31.5599999999999987 13.9199999999999982 27.6400000000000006
 31.5599999999999987 15.8799999999999990 25.6799999999999997
 29.5999999999999979 13.9199999999999982 29.5999999999999979
 29.5999999999999979 15.8799999999999990 31.5599999999999987
 31.5599999999999987 15.8799999999999990 29.5999999999999979
 29.5999999999999979 19.7999999999999972 19.7999999999999972
 29.5999999999999979 17.8399999999999963 21.7599999999999980
 29.5999999999999979 19.7999999999999972 23.7199999999999989
 31.5599999999999987 17.8399999999999963 23.7199999999999989
 31.5599999999999987 19.7999999999999972 21.7599999999999980
 29.5999999999999979 17.8399999999999963 25.6799999999999997
 29.5999999999999979 19.7999999999999972 27.6400000000000006
 31.5599999999999987 17.8399999999999963 27.6400000000000006
 31.5599999999999987 19.7999999999999972 25.6799999999999997
 29.5999999999999979 17.8399999999999963 29.5999999999999979
 29.5999999999999979 19.7999999999999972 31.5599999999999987
 31.5599999999999987 17.8399999999999963 31.5599999999999987
 31.5599999999999987 19.7999999999999972 29.5999999999999979
 29.5999999999999979 17.8399999999999963 33.5199999999999960
 29.5999999999999979 19.7999999999999972 35.4799999999999969
 31.5599999999999987 19.7999999999999972 33.5199999999999960
 29.5999999999999979 23.7199999999999989 15.8799999999999990
 29.5999999999999979 21.7599999999999980 17.8399999999999963
 29.5999999999999979 23.7199999999999989 19.7999999999999972
 31.5599999999999987 21.7599999999999980 19.7999999999999972
 31.5599999999999987 23.7199999999999989 17.8399999999999963
 29.5999999999999979 21.7599999999999980 21.7599999999999980
 29.5999999999999979 23.7199999999999989 23.7199999999999989
 31.5599999999999987 21.7599999999999980 23.7199999999999989
 31.5599999999999987 23.7199999999999989 21.7599999999999980
 29.5999999999999979 21.7599999999999980 25.6799999999999997
 29.5999999999999979 23.7199999999999989 27.6400000000000006
 31.5599999999999987 21.7599999999999980 27.6400000000000006
 31.5599999999999987 23.7199999999999989 25.6799999999999997
 29.5999999999999979 21.7599999999999980 29.5999999999999979
 29.5999999999999979 23.7199999999999989 31.5599999999999987
 31.5599999999999987 21.7599999999999980 31.5599999999999987
 31.5599999999999987 23.7199999999999989 29.5999999999999979
 29.5999999999999979 21.7599999999999980 33.5199999999999960
 29.5999999999999979 23.7199999999999989 35.4799999999999969
 31.5599999999999987 21.7599999999999980 35.4799999999999969
 31.5599999999999987 23.7199999999999989 33.5199999999999960
 29.5999999999999979 21.7599999999999980 37.4399999999999977
 29.5999999999999979 23.7199999999999989 39.3999999999999986
 31.5599999999999987 23.7199999999999989 37.4399999999999977
 29.5999999999999979 27.6400000000000006 11.9599999999999973
 29.5999999999999979 25.6799999999999997 13.9199999999999982
 29.5999999999999979 27.6400000000000006 15.8799999999999990
 31.5599999999999987 25.6799999999999997 15.8799999999999990
 31.5599999999999987 27.6400000000000006 13.9199999999999982
 29.5999999999999979 25.6799999999999997 17.8399999999999963
 29.5999999999999979 27.6400000000000006 19.7999999999999972
 31.5599999999999987 25.6799999999999997 19.7999999999999972
 31.5599999999999987 27.6400000000000006 17.8399999999999963
 29.5999999999999979 25.6799999999999997 21.7599999999999980
 29.5999999999999979 27.6400000000000006 23.7199999999999989
 31.5599999999999987 25.6799999999999997 23.7199999999999989
 31.5599999999999987 27.6400000000000006 21.7599999999999980
 29.5999999999999979 25.6799999999999997 25.6799999999999997
 29.5999999999999979 27.6400000000000006 27.6400000000000006
 31.5599999999999987 25.6799999999999997 27.6400000000000006
 31.5599999999999987 27.6400000000000006 25.6799999999999997
 29.5999999999999979 25.6799999999999997 29.5999999999999979
 29.5999999999999979 27.6400000000000006 31.5599999999999987
 31.5599999999999987 25.6799999999999997 31.5599999999999987
 31.5599999999999987 27.6400000000000006 29.5999999999999979
 29.5999999999999979 25.6799999999999997 33.5199999999999960
 29.5999999999999979 27.6400000000000006 35.4799999999999969
 31.5599999999999987 25.6799999999999997 35.4799999999999969
 31.5599999999999987 27.6400000000000006 33.5199999999999960
 29.5999999999999979 25.6799999999999997 37.4399999999999977
 29.5999999999999979 27.6400000000000006 39.3999999999999986
 31.5599999999999987 25.6799999999999997 39.3999999999999986
 31.5599999999999987 27.6400000000000006 37.4399999999999977
 29.5999999999999979 25.6799999999999997 41.3599999999999994
 29.5999999999999979 27.6400000000000006 43.3200000000000003
 31.5599999999999987 27.6400000000000006 41.3599999999999994
 29.5999999999999979 29.5999999999999979 13.9199999999999982
 29.5999999999999979 31.5599999999999987 15.8799999999999990
 31.5599999999999987 29.5999999999999979 15.8799999999999990
 29.5999999999999979 29.5999999999999979 17.8399999999999963
 29.5999999999999979 31.5599999999999987 19.7999999999999972
 31.5599999999999987 29.5999999999999979 19.7999999999999972
 31.5599999999999987 31.5599999999999987 17.8399999999999963
 29.5999999999999979 29.5999999999999979 21.7599999999999980
 29.5999999999999979 31.5599999999999987 23.7199999999999989
 31.5599999999999987 29.5999999999999979 23.7199999999999989
 31.5599999999999987 31.5599999999999987 21.7599999999999980
 29.5999999999999979 29.5999999999999979 25.6799999999999997
 29.5999999999999979 31.5599999999999987 27.6400000000000006
 31.5599999999999987 29.5999999999999979 27.6400000000000006
 31.5599999999999987 31.5599999999999987 25.6799999999999997
 29.5999999999999979 29.5999999999999979 29.5999999999999979
 29.5999999999999979 31.5599999999999987 31.5599999999999987
 31.5599999999999987 29.5999999999999979 31.5599999999999987
 31.5599999999999987 31.5599999999999987 29.5999999999999979
 29.5999999999999979 29.5999999999999979 33.5199999999999960
 29.5999999999999979 31.5599999999999987 35.4799999999999969