Pt 
 1.0000000000000000
    39.3419805771384077    0.0000000000000000    0.0000000000000000
     0.0000000000000000   38.3953166659417775    0.0000000000000000
     0.0000000000000000    0.0000000000000000   36.6311514935076019
 Pt 
 212
Cartesian
 19.6709902885692074 19.7102262643476784 10.0000000000000018
 19.6709902885692074 19.7102262643476784 12.7718585822512676
 19.6709902885692074 19.7102262643476784 15.5437171645025352
 19.6709902885692074 19.7102262643476784 18.3155757467538010
 19.6709902885692074 19.7102262643476784 21.0874343290050668
 19.6709902885692074 19.7102262643476784 23.8592929112563326
 19.6709902885692074 19.7102262643476784 26.6311514935076019
 21.9540014064118481 20.4520215432534549 11.3859292911256347
 21.9540014064118481 20.4520215432534549 14.1577878733769023
 21.9540014064118481 20.4520215432534549 16.9296464556281663
 21.9540014064118481 20.4520215432534549 19.7015050378794356
 21.9540014064118481 20.4520215432534549 22.4733636201307014
 21.9540014064118481 20.4520215432534549 25.2452222023819672
 19.6709902885692074 22.1107262122751926 11.3859292911256347
 19.6709902885692074 22.1107262122751926 14.1577878733769023
 19.6709902885692074 22.1107262122751926 16.9296464556281663
 19.6709902885692074 22.1107262122751926 19.7015050378794356
 19.6709902885692074 22.1107262122751926 22.4733636201307014
 19.6709902885692074 22.1107262122751926 25.2452222023819672
 17.3879791707265667 20.4520215432534584 11.3859292911256347
 17.3879791707265667 20.4520215432534584 14.1577878733769023
 17.3879791707265667 20.4520215432534584 16.9296464556281663
 17.3879791707265667 20.4520215432534584 19.7015050378794356
 17.3879791707265667 20.4520215432534584 22.4733636201307014
 17.3879791707265667 20.4520215432534584 25.2452222023819672
 18.2600118210485647 17.7681810114781449 11.3859292911256347
 18.2600118210485647 17.7681810114781449 14.1577878733769023
 18.2600118210485647 17.7681810114781449 16.9296464556281663
 18.2600118210485647 17.7681810114781449 19.7015050378794356
 18.2600118210485647 17.7681810114781449 22.4733636201307014
 18.2600118210485647 17.7681810114781449 25.2452222023819672
 21.0819687560898501 17.7681810114781413 11.3859292911256347
 21.0819687560898501 17.7681810114781413 14.1577878733769023
 21.0819687560898501 17.7681810114781413 16.9296464556281663
 21.0819687560898501 17.7681810114781413 19.7015050378794356
 21.0819687560898501 17.7681810114781413 22.4733636201307014
 21.0819687560898501 17.7681810114781413 25.2452222023819672
 24.2370125242544852 21.1938168221592349 12.7718585822512694
 24.2370125242544852 21.1938168221592349 15.5437171645025352
 24.2370125242544852 21.1938168221592349 18.3155757467538010
 24.2370125242544852 21.1938168221592349 21.0874343290050668
 24.2370125242544852 21.1938168221592349 23.8592929112563326
 21.9540014064118481 22.8525214911809691 12.7718585822512694
 21.9540014064118481 22.8525214911809691 15.5437171645025352
 21.9540014064118481 22.8525214911809691 18.3155757467538010
 21.9540014064118481 22.8525214911809691 21.0874343290050668
 21.9540014064118481 22.8525214911809691 23.8592929112563326
 19.6709902885692074 24.5112261602027068 12.7718585822512694
 19.6709902885692074 24.5112261602027068 15.5437171645025352
 19.6709902885692074 24.5112261602027068 18.3155757467538010
 19.6709902885692074 24.5112261602027068 21.0874343290050668
 19.6709902885692074 24.5112261602027068 23.8592929112563326
 17.3879791707265667 22.8525214911809726 12.7718585822512694
 17.3879791707265667 22.8525214911809726 15.5437171645025352
 17.3879791707265667 22.8525214911809726 18.3155757467538010
 17.3879791707265667 22.8525214911809726 21.0874343290050668
 17.3879791707265667 22.8525214911809726 23.8592929112563326
 15.1049680528839296 21.1938168221592349 12.7718585822512694
 15.1049680528839296 21.1938168221592349 15.5437171645025352
 15.1049680528839296 21.1938168221592349 18.3155757467538010
 15.1049680528839296 21.1938168221592349 21.0874343290050668
 15.1049680528839296 21.1938168221592349 23.8592929112563326
 15.9770007032059240 18.5099762903839213 12.7718585822512694
 15.9770007032059240 18.5099762903839213 15.5437171645025352
 15.9770007032059240 18.5099762903839213 18.3155757467538010
 15.9770007032059240 18.5099762903839213 21.0874343290050668
 15.9770007032059240 18.5099762903839213 23.8592929112563326
 16.8490333535279220 15.8261357586086078 12.7718585822512694
 16.8490333535279220 15.8261357586086078 15.5437171645025352
 16.8490333535279220 15.8261357586086078 18.3155757467538010
 16.8490333535279220 15.8261357586086078 21.0874343290050668
 16.8490333535279220 15.8261357586086078 23.8592929112563326
 19.6709902885692074 15.8261357586086078 12.7718585822512694
 19.6709902885692074 15.8261357586086078 15.5437171645025352
 19.6709902885692074 15.8261357586086078 18.3155757467538010
 19.6709902885692074 15.8261357586086078 21.0874343290050668
 19.6709902885692074 15.8261357586086078 23.8592929112563326
 22.4929472236104928 15.8261357586086078 12.7718585822512694
 22.4929472236104928 15.8261357586086078 15.5437171645025352
 22.4929472236104928 15.8261357586086078 18.3155757467538010
 22.4929472236104928 15.8261357586086078 21.0874343290050668
 22.4929472236104928 15.8261357586086078 23.8592929112563326
 23.3649798739324908 18.5099762903839213 12.7718585822512694
 23.3649798739324908 18.5099762903839213 15.5437171645025352
 23.3649798739324908 18.5099762903839213 18.3155757467538010
 23.3649798739324908 18.5099762903839213 21.0874343290050668
 23.3649798739324908 18.5099762903839213 23.8592929112563326
 26.5200236420971258 21.9356121010650114 14.1577878733769005
 26.5200236420971258 21.9356121010650114 16.9296464556281663
 26.5200236420971258 21.9356121010650114 19.7015050378794356
 26.5200236420971258 21.9356121010650114 22.4733636201307014
 24.2370125242544852 23.5943167700867491 14.1577878733769005
 24.2370125242544852 23.5943167700867491 16.9296464556281663
 24.2370125242544852 23.5943167700867491 19.7015050378794356
 24.2370125242544852 23.5943167700867491 22.4733636201307014
 21.9540014064118481 25.2530214391084833 14.1577878733769005
 21.9540014064118481 25.2530214391084833 16.9296464556281663
 21.9540014064118481 25.2530214391084833 19.7015050378794356
 21.9540014064118481 25.2530214391084833 22.4733636201307014
 19.6709902885692074 26.9117261081302210 14.1577878733769005
 19.6709902885692074 26.9117261081302210 16.9296464556281663
 19.6709902885692074 26.9117261081302210 19.7015050378794356
 19.6709902885692074 26.9117261081302210 22.4733636201307014
 17.3879791707265667 25.2530214391084868 14.1577878733769005
 17.3879791707265667 25.2530214391084868 16.9296464556281663
 17.3879791707265667 25.2530214391084868 19.7015050378794356
 17.3879791707265667 25.2530214391084868 22.4733636201307014
 15.1049680528839296 23.5943167700867491 14.1577878733769005
 15.1049680528839296 23.5943167700867491 16.9296464556281663
 15.1049680528839296 23.5943167700867491 19.7015050378794356
 15.1049680528839296 23.5943167700867491 22.4733636201307014
 12.8219569350412890 21.9356121010650149 14.1577878733769005
 12.8219569350412890 21.9356121010650149 16.9296464556281663
 12.8219569350412890 21.9356121010650149 19.7015050378794356
 12.8219569350412890 21.9356121010650149 22.4733636201307014
 13.6939895853632869 19.2517715692897013 14.1577878733769005
 13.6939895853632869 19.2517715692897013 16.9296464556281663
 13.6939895853632869 19.2517715692897013 19.7015050378794356
 13.6939895853632869 19.2517715692897013 22.4733636201307014
 14.5660222356852813 16.5679310375143878 14.1577878733769005
 14.5660222356852813 16.5679310375143878 16.9296464556281663
 14.5660222356852813 16.5679310375143878 19.7015050378794356
 14.5660222356852813 16.5679310375143878 22.4733636201307014
 15.4380548860072793 13.8840905057390742 14.1577878733769005
 15.4380548860072793 13.8840905057390742 16.9296464556281663
 15.4380548860072793 13.8840905057390742 19.7015050378794356
 15.4380548860072793 13.8840905057390742 22.4733636201307014
 18.2600118210485647 13.8840905057390724 14.1577878733769005
 18.2600118210485647 13.8840905057390724 16.9296464556281663
 18.2600118210485647 13.8840905057390724 19.7015050378794356
 18.2600118210485647 13.8840905057390724 22.4733636201307014
 21.0819687560898501 13.8840905057390707 14.1577878733769005
 21.0819687560898501 13.8840905057390707 16.9296464556281663
 21.0819687560898501 13.8840905057390707 19.7015050378794356
 21.0819687560898501 13.8840905057390707 22.4733636201307014
 23.9039256911311355 13.8840905057390707 14.1577878733769005
 23.9039256911311355 13.8840905057390707 16.9296464556281663
 23.9039256911311355 13.8840905057390707 19.7015050378794356
 23.9039256911311355 13.8840905057390707 22.4733636201307014
 24.7759583414531299 16.5679310375143842 14.1577878733769005
 24.7759583414531299 16.5679310375143842 16.9296464556281663
 24.7759583414531299 16.5679310375143842 19.7015050378794356
 24.7759583414531299 16.5679310375143842 22.4733636201307014
 25.6479909917751279 19.2517715692896978 14.1577878733769005
 25.6479909917751279 19.2517715692896978 16.9296464556281663
 25.6479909917751279 19.2517715692896978 19.7015050378794356
 25.6479909917751279 19.2517715692896978 22.4733636201307014
 26.5200236420971258 24.3361120489925256 15.5437171645025352
 26.5200236420971258 24.3361120489925256 18.3155757467538010
 26.5200236420971258 24.3361120489925256 21.0874343290050668
 24.2370125242544852 25.9948167180142633 15.5437171645025352
 24.2370125242544852 25.9948167180142633 18.3155757467538010
 24.2370125242544852 25.9948167180142633 21.0874343290050668
 21.9540014064118481 27.6535213870359975 15.5437171645025352
 21.9540014064118481 27.6535213870359975 18.3155757467538010
 21.9540014064118481 27.6535213870359975 21.0874343290050668
 17.3879791707265667 27.6535213870360010 15.5437171645025352
 17.3879791707265667 27.6535213870360010 18.3155757467538010
 17.3879791707265667 27.6535213870360010 21.0874343290050668
 15.1049680528839296 25.9948167180142633 15.5437171645025352
 15.1049680528839296 25.9948167180142633 18.3155757467538010
 15.1049680528839296 25.9948167180142633 21.0874343290050668
 12.8219569350412890 24.3361120489925291 15.5437171645025352
 12.8219569350412890 24.3361120489925291 18.3155757467538010
 12.8219569350412890 24.3361120489925291 21.0874343290050668
 11.4109784675206463 19.9935668481954778 15.5437171645025352
 11.4109784675206463 19.9935668481954778 18.3155757467538010
 11.4109784675206463 19.9935668481954778 21.0874343290050668
 12.2830111178426424 17.3097263164201642 15.5437171645025352
 12.2830111178426424 17.3097263164201642 18.3155757467538010
 12.2830111178426424 17.3097263164201642 21.0874343290050668
 13.1550437681646386 14.6258857846448507 15.5437171645025352
 13.1550437681646386 14.6258857846448507 18.3155757467538010
 13.1550437681646386 14.6258857846448507 21.0874343290050668
 16.8490333535279220 11.9420452528695371 15.5437171645025352
 16.8490333535279220 11.9420452528695371 18.3155757467538010
 16.8490333535279220 11.9420452528695371 21.0874343290050668
 19.6709902885692074 11.9420452528695371 15.5437171645025352
 19.6709902885692074 11.9420452528695371 18.3155757467538010
 19.6709902885692074 11.9420452528695371 21.0874343290050668
 22.4929472236104928 11.9420452528695353 15.5437171645025352
 22.4929472236104928 11.9420452528695353 18.3155757467538010
 22.4929472236104928 11.9420452528695353 21.0874343290050668
 26.1869368089737726 14.6258857846448471 15.5437171645025352
 26.1869368089737726 14.6258857846448471 18.3155757467538010
 26.1869368089737726 14.6258857846448471 21.0874343290050668
 27.0589694592957706 17.3097263164201607 15.5437171645025352
 27.0589694592957706 17.3097263164201607 18.3155757467538010
 27.0589694592957706 17.3097263164201607 21.0874343290050668
 27.9310021096177685 19.9935668481954743 15.5437171645025352
 27.9310021096177685 19.9935668481954743 18.3155757467538010
 27.9310021096177685 19.9935668481954743 21.0874343290050668
 26.5200236420971258 26.7366119969200398 16.9296464556281663
 26.5200236420971258 26.7366119969200398 19.7015050378794356
 24.2370125242544852 28.3953166659417775 16.9296464556281663
 24.2370125242544852 28.3953166659417775 19.7015050378794356
 15.1049680528839296 28.3953166659417775 16.9296464556281663
 15.1049680528839296 28.3953166659417775 19.7015050378794356
 12.8219569350412890 26.7366119969200433 16.9296464556281663
 12.8219569350412890 26.7366119969200433 19.7015050378794356
 10.0000000000000036 18.0515215953259442 16.9296464556281663
 10.0000000000000036 18.0515215953259442 19.7015050378794356
 10.8720326503219997 15.3676810635506307 16.9296464556281663
 10.8720326503219997 15.3676810635506307 19.7015050378794356
 18.2600118210485611 10.0000000000000018 16.9296464556281663
 18.2600118210485611 10.0000000000000018 19.7015050378794356
 21.0819687560898466 10.0000000000000000 16.9296464556281663
 21.0819687560898466 10.0000000000000000 19.7015050378794356
 28.4699479268164133 15.3676810635506271 16.9296464556281663
 28.4699479268164133 15.3676810635506271 19.7015050378794356
 29.3419805771384077 18.0515215953259407 16.9296464556281663
 29.3419805771384077 18.0515215953259407 19.7015050378794356
