Pt 
 1.0000000000000000
    47.4399999999999977    0.0000000000000000    0.0000000000000000
     0.0000000000000000   47.4399999999999977    0.0000000000000000
     0.0000000000000000    0.0000000000000000   47.4399999999999977
 Pt 
 807
Cartesian
 10.0000000000000000 17.8399999999999999 23.7199999999999989
 10.0000000000000000 19.7999999999999972 21.7599999999999980
 10.0000000000000000 21.7599999999999980 19.7999999999999972
 10.0000000000000000 19.7999999999999972 25.6799999999999997
 10.0000000000000000 21.7599999999999980 23.7199999999999989
 10.0000000000000000 21.7599999999999980 27.6400000000000006
 10.0000000000000000 23.7199999999999989 17.8399999999999999
 10.0000000000000000 23.7199999999999989 21.7599999999999980
 10.0000000000000000 25.6799999999999997 19.7999999999999972
 10.0000000000000000 23.7199999999999989 25.6799999999999997
 10.0000000000000000 25.6799999999999997 23.7199999999999989
 10.0000000000000000 23.7199999999999989 29.6000000000000014
 10.0000000000000000 25.6799999999999997 27.6400000000000006
 10.0000000000000000 27.6400000000000006 21.7599999999999980
 10.0000000000000000 27.6400000000000006 25.6799999999999997
 10.0000000000000000 29.6000000000000014 23.7199999999999989
 13.9199999999999982 13.9199999999999982 23.7199999999999989
 11.9599999999999991 17.8399999999999999 21.7599999999999980
 13.9199999999999982 15.8799999999999990 21.7599999999999980
 13.9199999999999982 17.8399999999999999 19.7999999999999972
 11.9599999999999991 15.8799999999999990 23.7199999999999989
 11.9599999999999991 17.8399999999999999 25.6799999999999997
 13.9199999999999982 15.8799999999999990 25.6799999999999997
 13.9199999999999982 17.8399999999999999 23.7199999999999989
 13.9199999999999982 17.8399999999999999 27.6400000000000006
 11.9599999999999991 21.7599999999999980 17.8399999999999999
 13.9199999999999982 19.7999999999999972 17.8399999999999999
 13.9199999999999982 21.7599999999999980 15.8799999999999990
 11.9599999999999991 19.7999999999999972 19.7999999999999972
 11.9599999999999991 21.7599999999999980 21.7599999999999980
 13.9199999999999982 19.7999999999999972 21.7599999999999980
 13.9199999999999982 21.7599999999999980 19.7999999999999972
 11.9599999999999991 19.7999999999999972 23.7199999999999989
 11.9599999999999991 21.7599999999999980 25.6799999999999997
 13.9199999999999982 19.7999999999999972 25.6799999999999997
 13.9199999999999982 21.7599999999999980 23.7199999999999989
 11.9599999999999991 19.7999999999999972 27.6400000000000006
 11.9599999999999991 21.7599999999999980 29.6000000000000014
 13.9199999999999982 19.7999999999999972 29.6000000000000014
 13.9199999999999982 21.7599999999999980 27.6400000000000006
 13.9199999999999982 21.7599999999999980 31.5599999999999987
 13.9199999999999982 23.7199999999999989 13.9199999999999982
 11.9599999999999991 23.7199999999999989 15.8799999999999990
 11.9599999999999991 25.6799999999999997 17.8399999999999999
 13.9199999999999982 23.7199999999999989 17.8399999999999999
 13.9199999999999982 25.6799999999999997 15.8799999999999990
 11.9599999999999991 23.7199999999999989 19.7999999999999972
 11.9599999999999991 25.6799999999999997 21.7599999999999980
 13.9199999999999982 23.7199999999999989 21.7599999999999980
 13.9199999999999982 25.6799999999999997 19.7999999999999972
 11.9599999999999991 23.7199999999999989 23.7199999999999989
 11.9599999999999991 25.6799999999999997 25.6799999999999997
 13.9199999999999982 23.7199999999999989 25.6799999999999997
 13.9199999999999982 25.6799999999999997 23.7199999999999989
 11.9599999999999991 23.7199999999999989 27.6400000000000006
 11.9599999999999991 25.6799999999999997 29.6000000000000014
 13.9199999999999982 23.7199999999999989 29.6000000000000014
 13.9199999999999982 25.6799999999999997 27.6400000000000006
 11.9599999999999991 23.7199999999999989 31.5599999999999987
 13.9199999999999982 23.7199999999999989 33.5199999999999960
 13.9199999999999982 25.6799999999999997 31.5599999999999987
 13.9199999999999982 27.6400000000000006 17.8399999999999999
 11.9599999999999991 27.6400000000000006 19.7999999999999972
 11.9599999999999991 29.6000000000000014 21.7599999999999980
 13.9199999999999982 27.6400000000000006 21.7599999999999980
 13.9199999999999982 29.6000000000000014 19.7999999999999972
 11.9599999999999991 27.6400000000000006 23.7199999999999989
 11.9599999999999991 29.6000000000000014 25.6799999999999997
 13.9199999999999982 27.6400000000000006 25.6799999999999997
 13.9199999999999982 29.6000000000000014 23.7199999999999989
 11.9599999999999991 27.6400000000000006 27.6400000000000006
 13.9199999999999982 27.6400000000000006 29.6000000000000014
 13.9199999999999982 29.6000000000000014 27.6400000000000006
 13.9199999999999982 31.5599999999999987 21.7599999999999980
 11.9599999999999991 31.5599999999999987 23.7199999999999989
 13.9199999999999982 31.5599999999999987 25.6799999999999997
 13.9199999999999982 33.5199999999999960 23.7199999999999989
 17.8399999999999999 10.0000000000000000 23.7199999999999989
 15.8799999999999990 13.9199999999999982 21.7599999999999980
 17.8399999999999999 11.9599999999999991 21.7599999999999980
 17.8399999999999999 13.9199999999999982 19.7999999999999972
 15.8799999999999990 11.9599999999999991 23.7199999999999989
 15.8799999999999990 13.9199999999999982 25.6799999999999997
 17.8399999999999999 11.9599999999999991 25.6799999999999997
 17.8399999999999999 13.9199999999999982 23.7199999999999989
 17.8399999999999999 13.9199999999999982 27.6400000000000006
 15.8799999999999990 17.8399999999999999 17.8399999999999999
 17.8399999999999999 15.8799999999999990 17.8399999999999999
 17.8399999999999999 17.8399999999999999 15.8799999999999990
 15.8799999999999990 15.8799999999999990 19.7999999999999972
 15.8799999999999990 17.8399999999999999 21.7599999999999980
 17.8399999999999999 15.8799999999999990 21.7599999999999980
 17.8399999999999999 17.8399999999999999 19.7999999999999972
 15.8799999999999990 15.8799999999999990 23.7199999999999989
 15.8799999999999990 17.8399999999999999 25.6799999999999997
 17.8399999999999999 15.8799999999999990 25.6799999999999997
 17.8399999999999999 17.8399999999999999 23.7199999999999989
 15.8799999999999990 15.8799999999999990 27.6400000000000006
 15.8799999999999990 17.8399999999999999 29.6000000000000014
 17.8399999999999999 15.8799999999999990 29.6000000000000014
 17.8399999999999999 17.8399999999999999 27.6400000000000006
 17.8399999999999999 17.8399999999999999 31.5599999999999987
 15.8799999999999990 21.7599999999999980 13.9199999999999982
 17.8399999999999999 19.7999999999999972 13.9199999999999982
 17.8399999999999999 21.7599999999999980 11.9599999999999991
 15.8799999999999990 19.7999999999999972 15.8799999999999990
 15.8799999999999990 21.7599999999999980 17.8399999999999999
 17.8399999999999999 19.7999999999999972 17.8399999999999999
 17.8399999999999999 21.7599999999999980 15.8799999999999990
 15.8799999999999990 19.7999999999999972 19.7999999999999972
 15.8799999999999990 21.7599999999999980 21.7599999999999980
 17.8399999999999999 19.7999999999999972 21.7599999999999980
 17.8399999999999999 21.7599999999999980 19.7999999999999972
 15.8799999999999990 19.7999999999999972 23.7199999999999989
 15.8799999999999990 21.7599999999999980 25.6799999999999997
 17.8399999999999999 19.7999999999999972 25.6799999999999997
 17.8399999999999999 21.7599999999999980 23.7199999999999989
 15.8799999999999990 19.7999999999999972 27.6400000000000006
 15.8799999999999990 21.7599999999999980 29.6000000000000014
 17.8399999999999999 19.7999999999999972 29.6000000000000014
 17.8399999999999999 21.7599999999999980 27.6400000000000006
 15.8799999999999990 19.7999999999999972 31.5599999999999987
 15.8799999999999990 21.7599999999999980 33.5199999999999960
 17.8399999999999999 19.7999999999999972 33.5199999999999960
 17.8399999999999999 21.7599999999999980 31.5599999999999987
 17.8399999999999999 21.7599999999999980 35.4799999999999969
 17.8399999999999999 23.7199999999999989 10.0000000000000000
 15.8799999999999990 23.7199999999999989 11.9599999999999991
 15.8799999999999990 25.6799999999999997 13.9199999999999982
 17.8399999999999999 23.7199999999999989 13.9199999999999982
 17.8399999999999999 25.6799999999999997 11.9599999999999991
 15.8799999999999990 23.7199999999999989 15.8799999999999990
 15.8799999999999990 25.6799999999999997 17.8399999999999999
 17.8399999999999999 23.7199999999999989 17.8399999999999999
 17.8399999999999999 25.6799999999999997 15.8799999999999990
 15.8799999999999990 23.7199999999999989 19.7999999999999972
 15.8799999999999990 25.6799999999999997 21.7599999999999980
 17.8399999999999999 23.7199999999999989 21.7599999999999980
 17.8399999999999999 25.6799999999999997 19.7999999999999972
 15.8799999999999990 23.7199999999999989 23.7199999999999989
 15.8799999999999990 25.6799999999999997 25.6799999999999997
 17.8399999999999999 23.7199999999999989 25.6799999999999997
 17.8399999999999999 25.6799999999999997 23.7199999999999989
 15.8799999999999990 23.7199999999999989 27.6400000000000006
 15.8799999999999990 25.6799999999999997 29.6000000000000014
 17.8399999999999999 23.7199999999999989 29.6000000000000014
 17.8399999999999999 25.6799999999999997 27.6400000000000006
 15.8799999999999990 23.7199999999999989 31.5599999999999987
 15.8799999999999990 25.6799999999999997 33.5199999999999960
 17.8399999999999999 23.7199999999999989 33.5199999999999960
 17.8399999999999999 25.6799999999999997 31.5599999999999987
 15.8799999999999990 23.7199999999999989 35.4799999999999969
 17.8399999999999999 23.7199999999999989 37.4399999999999977
 17.8399999999999999 25.6799999999999997 35.4799999999999969
 17.8399999999999999 27.6400000000000006 13.9199999999999982
 15.8799999999999990 27.6400000000000006 15.8799999999999990
 15.8799999999999990 29.6000000000000014 17.8399999999999999
 17.8399999999999999 27.6400000000000006 17.8399999999999999
 17.8399999999999999 29.6000000000000014 15.8799999999999990
 15.8799999999999990 27.6400000000000006 19.7999999999999972
 15.8799999999999990 29.6000000000000014 21.7599999999999980
 17.8399999999999999 27.6400000000000006 21.7599999999999980
 17.8399999999999999 29.6000000000000014 19.7999999999999972
 15.8799999999999990 27.6400000000000006 23.7199999999999989
 15.8799999999999990 29.6000000000000014 25.6799999999999997
 17.8399999999999999 27.6400000000000006 25.6799999999999997
 17.8399999999999999 29.6000000000000014 23.7199999999999989
 15.8799999999999990 27.6400000000000006 27.6400000000000006
 15.8799999999999990 29.6000000000000014 29.6000000000000014
 17.8399999999999999 27.6400000000000006 29.6000000000000014
 17.8399999999999999 29.6000000000000014 27.6400000000000006
 15.8799999999999990 27.6400000000000006 31.5599999999999987
 17.8399999999999999 27.6400000000000006 33.5199999999999960
 17.8399999999999999 29.6000000000000014 31.5599999999999987
 17.8399999999999999 31.5599999999999987 17.8399999999999999
 15.8799999999999990 31.5599999999999987 19.7999999999999972
 15.8799999999999990 33.5199999999999960 21.7599999999999980
 17.8399999999999999 31.5599999999999987 21.7599999999999980
 17.8399999999999999 33.5199999999999960 19.7999999999999972
 15.8799999999999990 31.5599999999999987 23.7199999999999989
 15.8799999999999990 33.5199999999999960 25.6799999999999997
 17.8399999999999999 31.5599999999999987 25.6799999999999997
 17.8399999999999999 33.5199999999999960 23.7199999999999989
 15.8799999999999990 31.5599999999999987 27.6400000000000006
 17.8399999999999999 31.5599999999999987 29.6000000000000014
 17.8399999999999999 33.5199999999999960 27.6400000000000006
 17.8399999999999999 35.4799999999999969 21.7599999999999980
 15.8799999999999990 35.4799999999999969 23.7199999999999989
 17.8399999999999999 35.4799999999999969 25.6799999999999997
 17.8399999999999999 37.4399999999999977 23.7199999999999989
 19.7999999999999972 10.0000000000000000 21.7599999999999980
 21.7599999999999980 10.0000000000000000 19.7999999999999972
 19.7999999999999972 10.0000000000000000 25.6799999999999997
 21.7599999999999980 10.0000000000000000 23.7199999999999989
 21.7599999999999980 10.0000000000000000 27.6400000000000006
 19.7999999999999972 13.9199999999999982 17.8399999999999999
 21.7599999999999980 11.9599999999999991 17.8399999999999999
 21.7599999999999980 13.9199999999999982 15.8799999999999990
 19.7999999999999972 11.9599999999999991 19.7999999999999972
 19.7999999999999972 13.9199999999999982 21.7599999999999980
 21.7599999999999980 11.9599999999999991 21.7599999999999980
 21.7599999999999980 13.9199999999999982 19.7999999999999972
 19.7999999999999972 11.9599999999999991 23.7199999999999989
 19.7999999999999972 13.9199999999999982 25.6799999999999997
 21.7599999999999980 11.9599999999999991 25.6799999999999997
 21.7599999999999980 13.9199999999999982 23.7199999999999989
 19.7999999999999972 11.9599999999999991 27.6400000000000006
 19.7999999999999972 13.9199999999999982 29.6000000000000014
 21.7599999999999980 11.9599999999999991 29.6000000000000014
 21.7599999999999980 13.9199999999999982 27.6400000000000006
 21.7599999999999980 13.9199999999999982 31.5599999999999987
 19.7999999999999972 17.8399999999999999 13.9199999999999982
 21.7599999999999980 15.8799999999999990 13.9199999999999982
 21.7599999999999980 17.8399999999999999 11.9599999999999991
 19.7999999999999972 15.8799999999999990 15.8799999999999990
 19.7999999999999972 17.8399999999999999 17.8399999999999999
 21.7599999999999980 15.8799999999999990 17.8399999999999999
 21.7599999999999980 17.8399999999999999 15.8799999999999990
 19.7999999999999972 15.8799999999999990 19.7999999999999972
 19.7999999999999972 17.8399999999999999 21.7599999999999980
 21.7599999999999980 15.8799999999999990 21.7599999999999980
 21.7599999999999980 17.8399999999999999 19.7999999999999972
 19.7999999999999972 15.8799999999999990 23.7199999999999989
 19.7999999999999972 17.8399999999999999 25.6799999999999997
 21.7599999999999980 15.8799999999999990 25.6799999999999997
 21.7599999999999980 17.8399999999999999 23.7199999999999989
 19.7999999999999972 15.8799999999999990 27.6400000000000006
 19.7999999999999972 17.8399999999999999 29.6000000000000014
 21.7599999999999980 15.8799999999999990 29.6000000000000014
 21.7599999999999980 17.8399999999999999 27.6400000000000006
 19.7999999999999972 15.8799999999999990 31.5599999999999987
 19.7999999999999972 17.8399999999999999 33.5199999999999960
 21.7599999999999980 15.8799999999999990 33.5199999999999960
 21.7599999999999980 17.8399999999999999 31.5599999999999987
 21.7599999999999980 17.8399999999999999 35.4799999999999969
 19.7999999999999972 21.7599999999999980 10.0000000000000000
 21.7599999999999980 19.7999999999999972 10.0000000000000000
 19.7999999999999972 19.7999999999999972 11.9599999999999991
 19.7999999999999972 21.7599999999999980 13.9199999999999982
 21.7599999999999980 19.7999999999999972 13.9199999999999982
 21.7599999999999980 21.7599999999999980 11.9599999999999991
 19.7999999999999972 19.7999999999999972 15.8799999999999990
 19.7999999999999972 21.7599999999999980 17.8399999999999999
 21.7599999999999980 19.7999999999999972 17.8399999999999999
 21.7599999999999980 21.7599999999999980 15.8799999999999990
 19.7999999999999972 19.7999999999999972 19.7999999999999972
 19.7999999999999972 21.7599999999999980 21.7599999999999980
 21.7599999999999980 19.7999999999999972 21.7599999999999980
 21.7599999999999980 21.7599999999999980 19.7999999999999972
 19.7999999999999972 19.7999999999999972 23.7199999999999989
 19.7999999999999972 21.7599999999999980 25.6799999999999997
 21.7599999999999980 19.7999999999999972 25.6799999999999997
 21.7599999999999980 21.7599999999999980 23.7199999999999989
 19.7999999999999972 19.7999999999999972 27.6400000000000006
 19.7999999999999972 21.7599999999999980 29.6000000000000014
 21.7599999999999980 19.7999999999999972 29.6000000000000014
 21.7599999999999980 21.7599999999999980 27.6400000000000006
 19.7999999999999972 19.7999999999999972 31.5599999999999987
 19.7999999999999972 21.7599999999999980 33.5199999999999960
 21.7599999999999980 19.7999999999999972 33.5199999999999960
 21.7599999999999980 21.7599999999999980 31.5599999999999987
 19.7999999999999972 19.7999999999999972 35.4799999999999969
 19.7999999999999972 21.7599999999999980 37.4399999999999977
 21.7599999999999980 19.7999999999999972 37.4399999999999977
 21.7599999999999980 21.7599999999999980 35.4799999999999969
 19.7999999999999972 25.6799999999999997 10.0000000000000000
 21.7599999999999980 23.7199999999999989 10.0000000000000000
 19.7999999999999972 23.7199999999999989 11.9599999999999991
 19.7999999999999972 25.6799999999999997 13.9199999999999982
 21.7599999999999980 23.7199999999999989 13.9199999999999982
 21.7599999999999980 25.6799999999999997 11.9599999999999991
 19.7999999999999972 23.7199999999999989 15.8799999999999990
 19.7999999999999972 25.6799999999999997 17.8399999999999999
 21.7599999999999980 23.7199999999999989 17.8399999999999999
 21.7599999999999980 25.6799999999999997 15.8799999999999990
 19.7999999999999972 23.7199999999999989 19.7999999999999972
 19.7999999999999972 25.6799999999999997 21.7599999999999980
 21.7599999999999980 23.7199999999999989 21.7599999999999980
 21.7599999999999980 25.6799999999999997 19.7999999999999972
 19.7999999999999972 23.7199999999999989 23.7199999999999989
 19.7999999999999972 25.6799999999999997 25.6799999999999997
 21.7599999999999980 23.7199999999999989 25.6799999999999997
 21.7599999999999980 25.6799999999999997 23.7199999999999989
 19.7999999999999972 23.7199999999999989 27.6400000000000006
 19.7999999999999972 25.6799999999999997 29.6000000000000014
 21.7599999999999980 23.7199999999999989 29.6000000000000014
 21.7599999999999980 25.6799999999999997 27.6400000000000006
 19.7999999999999972 23.7199999999999989 31.5599999999999987
 19.7999999999999972 25.6799999999999997 33.5199999999999960
 21.7599999999999980 23.7199999999999989 33.5199999999999960
 21.7599999999999980 25.6799999999999997 31.5599999999999987
 19.7999999999999972 23.7199999999999989 35.4799999999999969
 19.7999999999999972 25.6799999999999997 37.4399999999999977
 21.7599999999999980 23.7199999999999989 37.4399999999999977
 21.7599999999999980 25.6799999999999997 35.4799999999999969
 21.7599999999999980 27.6400000000000006 10.0000000000000000
 19.7999999999999972 27.6400000000000006 11.9599999999999991
 19.7999999999999972 29.6000000000000014 13.9199999999999982
 21.7599999999999980 27.6400000000000006 13.9199999999999982
 21.7599999999999980 29.6000000000000014 11.9599999999999991
 19.7999999999999972 27.6400000000000006 15.8799999999999990
 19.7999999999999972 29.6000000000000014 17.8399999999999999
 21.7599999999999980 27.6400000000000006 17.8399999999999999
 21.7599999999999980 29.6000000000000014 15.8799999999999990
 19.7999999999999972 27.6400000000000006 19.7999999999999972
 19.7999999999999972 29.6000000000000014 21.7599999999999980
 21.7599999999999980 27.6400000000000006 21.7599999999999980
 21.7599999999999980 29.6000000000000014 19.7999999999999972
 19.7999999999999972 27.6400000000000006 23.7199999999999989
 19.7999999999999972 29.6000000000000014 25.6799999999999997
 21.7599999999999980 27.6400000000000006 25.6799999999999997
 21.7599999999999980 29.6000000000000014 23.7199999999999989
 19.7999999999999972 27.6400000000000006 27.6400000000000006
 19.7999999999999972 29.6000000000000014 29.6000000000000014
 21.7599999999999980 27.6400000000000006 29.6000000000000014
 21.7599999999999980 29.6000000000000014 27.6400000000000006
 19.7999999999999972 27.6400000000000006 31.5599999999999987
 19.7999999999999972 29.6000000000000014 33.5199999999999960
 21.7599999999999980 27.6400000000000006 33.5199999999999960
 21.7599999999999980 29.6000000000000014 31.5599999999999987
 19.7999999999999972 27.6400000000000006 35.4799999999999969
 21.7599999999999980 27.6400000000000006 37.4399999999999977
 21.7599999999999980 29.6000000000000014 35.4799999999999969
 21.7599999999999980 31.5599999999999987 13.9199999999999982
 19.7999999999999972 31.5599999999999987 15.8799999999999990
 19.7999999999999972 33.5199999999999960 17.8399999999999999
 21.7599999999999980 31.5599999999999987 17.8399999999999999
 21.7599999999999980 33.5199999999999960 15.8799999999999990
 19.7999999999999972 31.5599999999999987 19.7999999999999972
 19.7999999999999972 33.5199999999999960 21.7599999999999980
 21.7599999999999980 31.5599999999999987 21.7599999999999980
 21.7599999999999980 33.5199999999999960 19.7999999999999972
 19.7999999999999972 31.5599999999999987 23.7199999999999989
 19.7999999999999972 33.5199999999999960 25.6799999999999997
 21.7599999999999980 31.5599999999999987 25.6799999999999997
 21.7599999999999980 33.5199999999999960 23.7199999999999989
 19.7999999999999972 31.5599999999999987 27.6400000000000006
 19.7999999999999972 33.5199999999999960 29.6000000000000014
 21.7599999999999980 31.5599999999999987 29.6000000000000014
 21.7599999999999980 33.5199999999999960 27.6400000000000006
 19.7999999999999972 31.5599999999999987 31.5599999999999987
 21.7599999999999980 31.5599999999999987 33.5199999999999960
 21.7599999999999980 33.5199999999999960 31.5599999999999987
 21.7599999999999980 35.4799999999999969 17.8399999999999999
 19.7999999999999972 35.4799999999999969 19.7999999999999972
 19.7999999999999972 37.4399999999999977 21.7599999999999980
 21.7599999999999980 35.4799999999999969 21.7599999999999980
 21.7599999999999980 37.4399999999999977 19.7999999999999972
 19.7999999999999972 35.4799999999999969 23.7199999999999989
 19.7999999999999972 37.4399999999999977 25.6799999999999997
 21.7599999999999980 35.4799999999999969 25.6799999999999997
 21.7599999999999980 37.4399999999999977 23.7199999999999989
 19.7999999999999972 35.4799999999999969 27.6400000000000006
 21.7599999999999980 35.4799999999999969 29.6000000000000014
 21.7599999999999980 37.4399999999999977 27.6400000000000006
 23.7199999999999989 10.0000000000000000 17.8399999999999999
 23.7199999999999989 10.0000000000000000 21.7599999999999980
 25.6799999999999997 10.0000000000000000 19.7999999999999972
 23.7199999999999989 10.0000000000000000 25.6799999999999997
 25.6799999999999997 10.0000000000000000 23.7199999999999989
 23.7199999999999989 10.0000000000000000 29.6000000000000014
 25.6799999999999997 10.0000000000000000 27.6400000000000006
 23.7199999999999989 13.9199999999999982 13.9199999999999982
 23.7199999999999989 11.9599999999999991 15.8799999999999990
 23.7199999999999989 13.9199999999999982 17.8399999999999999
 25.6799999999999997 11.9599999999999991 17.8399999999999999
 25.6799999999999997 13.9199999999999982 15.8799999999999990
 23.7199999999999989 11.9599999999999991 19.7999999999999972
 23.7199999999999989 13.9199999999999982 21.7599999999999980
 25.6799999999999997 11.9599999999999991 21.7599999999999980
 25.6799999999999997 13.9199999999999982 19.7999999999999972
 23.7199999999999989 11.9599999999999991 23.7199999999999989
 23.7199999999999989 13.9199999999999982 25.6799999999999997
 25.6799999999999997 11.9599999999999991 25.6799999999999997
 25.6799999999999997 13.9199999999999982 23.7199999999999989
 23.7199999999999989 11.9599999999999991 27.6400000000000006
 23.7199999999999989 13.9199999999999982 29.6000000000000014
 25.6799999999999997 11.9599999999999991 29.6000000000000014
 25.6799999999999997 13.9199999999999982 27.6400000000000006
 23.7199999999999989 11.9599999999999991 31.5599999999999987
 23.7199999999999989 13.9199999999999982 33.5199999999999960
 25.6799999999999997 13.9199999999999982 31.5599999999999987
 23.7199999999999989 17.8399999999999999 10.0000000000000000
 23.7199999999999989 15.8799999999999990 11.9599999999999991
 23.7199999999999989 17.8399999999999999 13.9199999999999982
 25.6799999999999997 15.8799999999999990 13.9199999999999982
 25.6799999999999997 17.8399999999999999 11.9599999999999991
 23.7199999999999989 15.8799999999999990 15.8799999999999990
 23.7199999999999989 17.8399999999999999 17.8399999999999999
 25.6799999999999997 15.8799999999999990 17.8399999999999999
 25.6799999999999997 17.8399999999999999 15.8799999999999990
 23.7199999999999989 15.8799999999999990 19.7999999999999972
 23.7199999999999989 17.8399999999999999 21.7599999999999980
 25.6799999999999997 15.8799999999999990 21.7599999999999980
 25.6799999999999997 17.8399999999999999 19.7999999999999972
 23.7199999999999989 15.8799999999999990 23.7199999999999989
 23.7199999999999989 17.8399999999999999 25.6799999999999997
 25.6799999999999997 15.8799999999999990 25.6799999999999997
 25.6799999999999997 17.8399999999999999 23.7199999999999989
 23.7199999999999989 15.8799999999999990 27.6400000000000006
 23.7199999999999989 17.8399999999999999 29.6000000000000014
 25.6799999999999997 15.8799999999999990 29.6000000000000014
 25.6799999999999997 17.8399999999999999 27.6400000000000006
 23.7199999999999989 15.8799999999999990 31.5599999999999987
 23.7199999999999989 17.8399999999999999 33.5199999999999960
 25.6799999999999997 15.8799999999999990 33.5199999999999960
 25.6799999999999997 17.8399999999999999 31.5599999999999987
 23.7199999999999989 15.8799999999999990 35.4799999999999969
 23.7199999999999989 17.8399999999999999 37.4399999999999977
 25.6799999999999997 17.8399999999999999 35.4799999999999969
 23.7199999999999989 21.7599999999999980 10.0000000000000000
 25.6799999999999997 19.7999999999999972 10.0000000000000000
 23.7199999999999989 19.7999999999999972 11.9599999999999991
 23.7199999999999989 21.7599999999999980 13.9199999999999982
 25.6799999999999997 19.7999999999999972 13.9199999999999982
 25.6799999999999997 21.7599999999999980 11.9599999999999991
 23.7199999999999989 19.7999999999999972 15.8799999999999990
 23.7199999999999989 21.7599999999999980 17.8399999999999999
 25.6799999999999997 19.7999999999999972 17.8399999999999999
 25.6799999999999997 21.7599999999999980 15.8799999999999990
 23.7199999999999989 19.7999999999999972 19.7999999999999972
 23.7199999999999989 21.7599999999999980 21.7599999999999980
 25.6799999999999997 19.7999999999999972 21.7599999999999980
 25.6799999999999997 21.7599999999999980 19.7999999999999972
 23.7199999999999989 19.7999999999999972 23.7199999999999989
 23.7199999999999989 21.7599999999999980 25.6799999999999997
 25.6799999999999997 19.7999999999999972 25.6799999999999997
 25.6799999999999997 21.7599999999999980 23.7199999999999989
 23.7199999999999989 19.7999999999999972 27.6400000000000006
 23.7199999999999989 21.7599999999999980 29.6000000000000014
 25.6799999999999997 19.7999999999999972 29.6000000000000014
 25.6799999999999997 21.7599999999999980 27.6400000000000006
 23.7199999999999989 19.7999999999999972 31.5599999999999987
 23.7199999999999989 21.7599999999999980 33.5199999999999960
 25.6799999999999997 19.7999999999999972 33.5199999999999960
 25.6799999999999997 21.7599999999999980 31.5599999999999987
 23.7199999999999989 19.7999999999999972 35.4799999999999969
 23.7199999999999989 21.7599999999999980 37.4399999999999977
 25.6799999999999997 19.7999999999999972 37.4399999999999977
 25.6799999999999997 21.7599999999999980 35.4799999999999969
 23.7199999999999989 25.6799999999999997 10.0000000000000000
 25.6799999999999997 23.7199999999999989 10.0000000000000000
 23.7199999999999989 23.7199999999999989 11.9599999999999991
 23.7199999999999989 25.6799999999999997 13.9199999999999982
 25.6799999999999997 23.7199999999999989 13.9199999999999982
 25.6799999999999997 25.6799999999999997 11.9599999999999991
 23.7199999999999989 23.7199999999999989 15.8799999999999990
 23.7199999999999989 25.6799999999999997 17.8399999999999999
 25.6799999999999997 23.7199999999999989 17.8399999999999999
 25.6799999999999997 25.6799999999999997 15.8799999999999990
 23.7199999999999989 23.7199999999999989 19.7999999999999972
 23.7199999999999989 25.6799999999999997 21.7599999999999980
 25.6799999999999997 23.7199999999999989 21.7599999999999980
 25.6799999999999997 25.6799999999999997 19.7999999999999972
 23.7199999999999989 23.7199999999999989 23.7199999999999989
 23.7199999999999989 25.6799999999999997 25.6799999999999997
 25.6799999999999997 23.7199999999999989 25.6799999999999997
 25.6799999999999997 25.6799999999999997 23.7199999999999989
 23.7199999999999989 23.7199999999999989 27.6400000000000006
 23.7199999999999989 25.6799999999999997 29.6000000000000014
 25.6799999999999997 23.7199999999999989 29.6000000000000014
 25.6799999999999997 25.6799999999999997 27.6400000000000006
 23.7199999999999989 23.7199999999999989 31.5599999999999987
 23.7199999999999989 25.6799999999999997 33.5199999999999960
 25.6799999999999997 23.7199999999999989 33.5199999999999960
 25.6799999999999997 25.6799999999999997 31.5599999999999987
 23.7199999999999989 23.7199999999999989 35.4799999999999969
 23.7199999999999989 25.6799999999999997 37.4399999999999977
 25.6799999999999997 23.7199999999999989 37.4399999999999977
 25.6799999999999997 25.6799999999999997 35.4799999999999969
 23.7199999999999989 29.6000000000000014 10.0000000000000000
 25.6799999999999997 27.6400000000000006 10.0000000000000000
 23.7199999999999989 27.6400000000000006 11.9599999999999991
 23.7199999999999989 29.6000000000000014 13.9199999999999982
 25.6799999999999997 27.6400000000000006 13.9199999999999982
 25.6799999999999997 29.6000000000000014 11.9599999999999991
 23.7199999999999989 27.6400000000000006 15.8799999999999990
 23.7199999999999989 29.6000000000000014 17.8399999999999999
 25.6799999999999997 27.6400000000000006 17.8399999999999999
 25.6799999999999997 29.6000000000000014 15.8799999999999990
 23.7199999999999989 27.6400000000000006 19.7999999999999972
 23.7199999999999989 29.6000000000000014 21.7599999999999980
 25.6799999999999997 27.6400000000000006 21.7599999999999980
 25.6799999999999997 29.6000000000000014 19.7999999999999972
 23.7199999999999989 27.6400000000000006 23.7199999999999989
 23.7199999999999989 29.6000000000000014 25.6799999999999997
 25.6799999999999997 27.6400000000000006 25.6799999999999997