Pt 
 1.0000000000000000
    36.5200236420971223    0.0000000000000000    0.0000000000000000
     0.0000000000000000   35.7114761341664604    0.0000000000000000
     0.0000000000000000    0.0000000000000000   39.4030100757588642
 Pt 
 238
Cartesian
 18.2600118210485611 17.7681810114781413 10.0000000000000000
 18.2600118210485611 17.7681810114781413 12.7718585822512658
 18.2600118210485611 17.7681810114781413 15.5437171645025316
 18.2600118210485611 17.7681810114781413 18.3155757467538010
 18.2600118210485611 17.7681810114781413 21.0874343290050632
 18.2600118210485611 17.7681810114781413 23.8592929112563326
 18.2600118210485611 17.7681810114781413 26.6311514935075984
 18.2600118210485611 17.7681810114781413 29.4030100757588642
 20.5430229388912018 18.5099762903839178 11.3859292911256329
 20.5430229388912018 18.5099762903839178 14.1577878733768987
 20.5430229388912018 18.5099762903839178 16.9296464556281663
 20.5430229388912018 18.5099762903839178 19.7015050378794321
 20.5430229388912018 18.5099762903839178 22.4733636201306979
 20.5430229388912018 18.5099762903839178 25.2452222023819637
 20.5430229388912018 18.5099762903839178 28.0170807846332295
 18.2600118210485611 20.1686809594056555 11.3859292911256329
 18.2600118210485611 20.1686809594056555 14.1577878733768987
 18.2600118210485611 20.1686809594056555 16.9296464556281663
 18.2600118210485611 20.1686809594056555 19.7015050378794321
 18.2600118210485611 20.1686809594056555 22.4733636201306979
 18.2600118210485611 20.1686809594056555 25.2452222023819637
 18.2600118210485611 20.1686809594056555 28.0170807846332295
 15.9770007032059222 18.5099762903839213 11.3859292911256329
 15.9770007032059222 18.5099762903839213 14.1577878733768987
 15.9770007032059222 18.5099762903839213 16.9296464556281663
 15.9770007032059222 18.5099762903839213 19.7015050378794321
 15.9770007032059222 18.5099762903839213 22.4733636201306979
 15.9770007032059222 18.5099762903839213 25.2452222023819637
 15.9770007032059222 18.5099762903839213 28.0170807846332295
 16.8490333535279184 15.8261357586086060 11.3859292911256329
 16.8490333535279184 15.8261357586086060 14.1577878733768987
 16.8490333535279184 15.8261357586086060 16.9296464556281663
 16.8490333535279184 15.8261357586086060 19.7015050378794321
 16.8490333535279184 15.8261357586086060 22.4733636201306979
 16.8490333535279184 15.8261357586086060 25.2452222023819637
 16.8490333535279184 15.8261357586086060 28.0170807846332295
 19.6709902885692038 15.8261357586086060 11.3859292911256329
 19.6709902885692038 15.8261357586086060 14.1577878733768987
 19.6709902885692038 15.8261357586086060 16.9296464556281663
 19.6709902885692038 15.8261357586086060 19.7015050378794321
 19.6709902885692038 15.8261357586086060 22.4733636201306979
 19.6709902885692038 15.8261357586086060 25.2452222023819637
 19.6709902885692038 15.8261357586086060 28.0170807846332295
 22.8260340567338389 19.2517715692896978 12.7718585822512658
 22.8260340567338389 19.2517715692896978 15.5437171645025334
 22.8260340567338389 19.2517715692896978 18.3155757467538010
 22.8260340567338389 19.2517715692896978 21.0874343290050668
 22.8260340567338389 19.2517715692896978 23.8592929112563326
 22.8260340567338389 19.2517715692896978 26.6311514935075984
 20.5430229388912018 20.9104762383114320 12.7718585822512658
 20.5430229388912018 20.9104762383114320 15.5437171645025334
 20.5430229388912018 20.9104762383114320 18.3155757467538010
 20.5430229388912018 20.9104762383114320 21.0874343290050668
 20.5430229388912018 20.9104762383114320 23.8592929112563326
 20.5430229388912018 20.9104762383114320 26.6311514935075984
 18.2600118210485611 22.5691809073331697 12.7718585822512658
 18.2600118210485611 22.5691809073331697 15.5437171645025334
 18.2600118210485611 22.5691809073331697 18.3155757467538010
 18.2600118210485611 22.5691809073331697 21.0874343290050668
 18.2600118210485611 22.5691809073331697 23.8592929112563326
 18.2600118210485611 22.5691809073331697 26.6311514935075984
 15.9770007032059222 20.9104762383114320 12.7718585822512658
 15.9770007032059222 20.9104762383114320 15.5437171645025334
 15.9770007032059222 20.9104762383114320 18.3155757467538010
 15.9770007032059222 20.9104762383114320 21.0874343290050668
 15.9770007032059222 20.9104762383114320 23.8592929112563326
 15.9770007032059222 20.9104762383114320 26.6311514935075984
 13.6939895853632834 19.2517715692896978 12.7718585822512658
 13.6939895853632834 19.2517715692896978 15.5437171645025334
 13.6939895853632834 19.2517715692896978 18.3155757467538010
 13.6939895853632834 19.2517715692896978 21.0874343290050668
 13.6939895853632834 19.2517715692896978 23.8592929112563326
 13.6939895853632834 19.2517715692896978 26.6311514935075984
 14.5660222356852778 16.5679310375143842 12.7718585822512658
 14.5660222356852778 16.5679310375143842 15.5437171645025334
 14.5660222356852778 16.5679310375143842 18.3155757467538010
 14.5660222356852778 16.5679310375143842 21.0874343290050668
 14.5660222356852778 16.5679310375143842 23.8592929112563326
 14.5660222356852778 16.5679310375143842 26.6311514935075984
 15.4380548860072757 13.8840905057390707 12.7718585822512658
 15.4380548860072757 13.8840905057390707 15.5437171645025334
 15.4380548860072757 13.8840905057390707 18.3155757467538010
 15.4380548860072757 13.8840905057390707 21.0874343290050668
 15.4380548860072757 13.8840905057390707 23.8592929112563326
 15.4380548860072757 13.8840905057390707 26.6311514935075984
 18.2600118210485611 13.8840905057390707 12.7718585822512658
 18.2600118210485611 13.8840905057390707 15.5437171645025334
 18.2600118210485611 13.8840905057390707 18.3155757467538010
 18.2600118210485611 13.8840905057390707 21.0874343290050668
 18.2600118210485611 13.8840905057390707 23.8592929112563326
 18.2600118210485611 13.8840905057390707 26.6311514935075984
 21.0819687560898466 13.8840905057390707 12.7718585822512658
 21.0819687560898466 13.8840905057390707 15.5437171645025334
 21.0819687560898466 13.8840905057390707 18.3155757467538010
 21.0819687560898466 13.8840905057390707 21.0874343290050668
 21.0819687560898466 13.8840905057390707 23.8592929112563326
 21.0819687560898466 13.8840905057390707 26.6311514935075984
 21.9540014064118409 16.5679310375143842 12.7718585822512658
 21.9540014064118409 16.5679310375143842 15.5437171645025334
 21.9540014064118409 16.5679310375143842 18.3155757467538010
 21.9540014064118409 16.5679310375143842 21.0874343290050668
 21.9540014064118409 16.5679310375143842 23.8592929112563326
 21.9540014064118409 16.5679310375143842 26.6311514935075984
 25.1090451745764796 19.9935668481954743 14.1577878733769005
 25.1090451745764796 19.9935668481954743 16.9296464556281663
 25.1090451745764796 19.9935668481954743 19.7015050378794321
 25.1090451745764796 19.9935668481954743 22.4733636201306979
 25.1090451745764796 19.9935668481954743 25.2452222023819637
 22.8260340567338389 21.6522715172172120 14.1577878733769005
 22.8260340567338389 21.6522715172172120 16.9296464556281663
 22.8260340567338389 21.6522715172172120 19.7015050378794321
 22.8260340567338389 21.6522715172172120 22.4733636201306979
 22.8260340567338389 21.6522715172172120 25.2452222023819637
 20.5430229388912018 23.3109761862389462 14.1577878733769005
 20.5430229388912018 23.3109761862389462 16.9296464556281663
 20.5430229388912018 23.3109761862389462 19.7015050378794321
 20.5430229388912018 23.3109761862389462 22.4733636201306979
 20.5430229388912018 23.3109761862389462 25.2452222023819637
 18.2600118210485611 24.9696808552606839 14.1577878733769005
 18.2600118210485611 24.9696808552606839 16.9296464556281663
 18.2600118210485611 24.9696808552606839 19.7015050378794321
 18.2600118210485611 24.9696808552606839 22.4733636201306979
 18.2600118210485611 24.9696808552606839 25.2452222023819637
 15.9770007032059222 23.3109761862389462 14.1577878733769005
 15.9770007032059222 23.3109761862389462 16.9296464556281663
 15.9770007032059222 23.3109761862389462 19.7015050378794321
 15.9770007032059222 23.3109761862389462 22.4733636201306979
 15.9770007032059222 23.3109761862389462 25.2452222023819637
 13.6939895853632834 21.6522715172172120 14.1577878733769005
 13.6939895853632834 21.6522715172172120 16.9296464556281663
 13.6939895853632834 21.6522715172172120 19.7015050378794321
 13.6939895853632834 21.6522715172172120 22.4733636201306979
 13.6939895853632834 21.6522715172172120 25.2452222023819637
 11.4109784675206427 19.9935668481954778 14.1577878733769005
 11.4109784675206427 19.9935668481954778 16.9296464556281663
 11.4109784675206427 19.9935668481954778 19.7015050378794321
 11.4109784675206427 19.9935668481954778 22.4733636201306979
 11.4109784675206427 19.9935668481954778 25.2452222023819637
 12.2830111178426407 17.3097263164201642 14.1577878733769005
 12.2830111178426407 17.3097263164201642 16.9296464556281663
 12.2830111178426407 17.3097263164201642 19.7015050378794321
 12.2830111178426407 17.3097263164201642 22.4733636201306979
 12.2830111178426407 17.3097263164201642 25.2452222023819637
 13.1550437681646351 14.6258857846448507 14.1577878733769005
 13.1550437681646351 14.6258857846448507 16.9296464556281663
 13.1550437681646351 14.6258857846448507 19.7015050378794321
 13.1550437681646351 14.6258857846448507 22.4733636201306979
 13.1550437681646351 14.6258857846448507 25.2452222023819637
 14.0270764184866330 11.9420452528695371 14.1577878733769005
 14.0270764184866330 11.9420452528695371 16.9296464556281663
 14.0270764184866330 11.9420452528695371 19.7015050378794321
 14.0270764184866330 11.9420452528695371 22.4733636201306979
 14.0270764184866330 11.9420452528695371 25.2452222023819637
 16.8490333535279184 11.9420452528695353 14.1577878733769005
 16.8490333535279184 11.9420452528695353 16.9296464556281663
 16.8490333535279184 11.9420452528695353 19.7015050378794321
 16.8490333535279184 11.9420452528695353 22.4733636201306979
 16.8490333535279184 11.9420452528695353 25.2452222023819637
 19.6709902885692038 11.9420452528695336 14.1577878733769005
 19.6709902885692038 11.9420452528695336 16.9296464556281663
 19.6709902885692038 11.9420452528695336 19.7015050378794321
 19.6709902885692038 11.9420452528695336 22.4733636201306979
 19.6709902885692038 11.9420452528695336 25.2452222023819637
 22.4929472236104857 11.9420452528695336 14.1577878733769005
 22.4929472236104857 11.9420452528695336 16.9296464556281663
 22.4929472236104857 11.9420452528695336 19.7015050378794321
 22.4929472236104857 11.9420452528695336 22.4733636201306979
 22.4929472236104857 11.9420452528695336 25.2452222023819637
 23.3649798739324837 14.6258857846448471 14.1577878733769005
 23.3649798739324837 14.6258857846448471 16.9296464556281663
 23.3649798739324837 14.6258857846448471 19.7015050378794321
 23.3649798739324837 14.6258857846448471 22.4733636201306979
 23.3649798739324837 14.6258857846448471 25.2452222023819637
 24.2370125242544816 17.3097263164201607 14.1577878733769005
 24.2370125242544816 17.3097263164201607 16.9296464556281663
 24.2370125242544816 17.3097263164201607 19.7015050378794321
 24.2370125242544816 17.3097263164201607 22.4733636201306979
 24.2370125242544816 17.3097263164201607 25.2452222023819637
 25.1090451745764796 22.3940667961229884 15.5437171645025316
 25.1090451745764796 22.3940667961229884 18.3155757467537974
 25.1090451745764796 22.3940667961229884 21.0874343290050632
 25.1090451745764796 22.3940667961229884 23.8592929112563326
 22.8260340567338389 24.0527714651447262 15.5437171645025316
 22.8260340567338389 24.0527714651447262 18.3155757467537974
 22.8260340567338389 24.0527714651447262 21.0874343290050632
 22.8260340567338389 24.0527714651447262 23.8592929112563326
 20.5430229388912018 25.7114761341664604 15.5437171645025316
 20.5430229388912018 25.7114761341664604 18.3155757467537974
 20.5430229388912018 25.7114761341664604 21.0874343290050632
 20.5430229388912018 25.7114761341664604 23.8592929112563326
 15.9770007032059222 25.7114761341664604 15.5437171645025316
 15.9770007032059222 25.7114761341664604 18.3155757467537974
 15.9770007032059222 25.7114761341664604 21.0874343290050632
 15.9770007032059222 25.7114761341664604 23.8592929112563326
 13.6939895853632834 24.0527714651447262 15.5437171645025316
 13.6939895853632834 24.0527714651447262 18.3155757467537974
 13.6939895853632834 24.0527714651447262 21.0874343290050632
 13.6939895853632834 24.0527714651447262 23.8592929112563326
 11.4109784675206427 22.3940667961229920 15.5437171645025316
 11.4109784675206427 22.3940667961229920 18.3155757467537974
 11.4109784675206427 22.3940667961229920 21.0874343290050632
 11.4109784675206427 22.3940667961229920 23.8592929112563326
 10.0000000000000000 18.0515215953259407 15.5437171645025316
 10.0000000000000000 18.0515215953259407 18.3155757467537974
 10.0000000000000000 18.0515215953259407 21.0874343290050632
 10.0000000000000000 18.0515215953259407 23.8592929112563326
 10.8720326503219962 15.3676810635506271 15.5437171645025316
 10.8720326503219962 15.3676810635506271 18.3155757467537974
 10.8720326503219962 15.3676810635506271 21.0874343290050632
 10.8720326503219962 15.3676810635506271 23.8592929112563326
 11.7440653006439923 12.6838405317753136 15.5437171645025316
 11.7440653006439923 12.6838405317753136 18.3155757467537974
 11.7440653006439923 12.6838405317753136 21.0874343290050632
 11.7440653006439923 12.6838405317753136 23.8592929112563326
 15.4380548860072739 10.0000000000000000 15.5437171645025316
 15.4380548860072739 10.0000000000000000 18.3155757467537974
 15.4380548860072739 10.0000000000000000 21.0874343290050632
 15.4380548860072739 10.0000000000000000 23.8592929112563326
 18.2600118210485576 10.0000000000000000 15.5437171645025316
 18.2600118210485576 10.0000000000000000 18.3155757467537974
 18.2600118210485576 10.0000000000000000 21.0874343290050632
 18.2600118210485576 10.0000000000000000 23.8592929112563326
 21.0819687560898430  9.9999999999999982 15.5437171645025316
 21.0819687560898430  9.9999999999999982 18.3155757467537974
 21.0819687560898430  9.9999999999999982 21.0874343290050632
 21.0819687560898430  9.9999999999999982 23.8592929112563326
 24.7759583414531264 12.6838405317753100 15.5437171645025316
 24.7759583414531264 12.6838405317753100 18.3155757467537974
 24.7759583414531264 12.6838405317753100 21.0874343290050632
 24.7759583414531264 12.6838405317753100 23.8592929112563326
 25.6479909917751243 15.3676810635506254 15.5437171645025316
 25.6479909917751243 15.3676810635506254 18.3155757467537974
 25.6479909917751243 15.3676810635506254 21.0874343290050632
 25.6479909917751243 15.3676810635506254 23.8592929112563326
 26.5200236420971223 18.0515215953259371 15.5437171645025316
 26.5200236420971223 18.0515215953259371 18.3155757467537974
 26.5200236420971223 18.0515215953259371 21.0874343290050632
 26.5200236420971223 18.0515215953259371 23.8592929112563326
