Au 
 1.0000000000000000
    59.1410111329358301    0.0000000000000000    0.0000000000000000
     0.0000000000000000   57.2253136923597765    0.0000000000000000
     0.0000000000000000    0.0000000000000000   57.5049436741344806
 Au 
 1634
Cartesian
 29.5705055664679151 28.1918116544309605 10.0000000000000000
 29.5705055664679151 28.1918116544309605 12.8849956672411139
 29.5705055664679151 28.1918116544309605 15.7699913344822278
 29.5705055664679151 28.1918116544309605 18.6549870017233417
 29.5705055664679151 28.1918116544309605 21.5399826689644556
 29.5705055664679151 28.1918116544309605 24.4249783362055695
 29.5705055664679151 28.1918116544309605 27.3099740034466834
 29.5705055664679151 28.1918116544309605 30.1949696706877972
 29.5705055664679151 28.1918116544309605 33.0799653379289111
 29.5705055664679151 28.1918116544309605 35.9649610051700250
 29.5705055664679151 28.1918116544309605 38.8499566724111389
 29.5705055664679151 28.1918116544309605 41.7349523396522528
 29.5705055664679151 28.1918116544309605 44.6199480068933667
 29.5705055664679151 28.1918116544309605 47.5049436741344806
 31.9467008115694391 28.9638842916594221 11.4424978336205569
 31.9467008115694391 28.9638842916594221 14.3274935008616708
 31.9467008115694391 28.9638842916594221 17.2124891681027847
 31.9467008115694391 28.9638842916594221 20.0974848353438986
 31.9467008115694391 28.9638842916594221 22.9824805025850125
 31.9467008115694391 28.9638842916594221 25.8674761698261264
 31.9467008115694391 28.9638842916594221 28.7524718370672403
 31.9467008115694391 28.9638842916594221 31.6374675043083542
 31.9467008115694391 28.9638842916594221 34.5224631715494681
 31.9467008115694391 28.9638842916594221 37.4074588387905820
 31.9467008115694391 28.9638842916594221 40.2924545060316959
 31.9467008115694391 28.9638842916594221 43.1774501732728098
 31.9467008115694391 28.9638842916594221 46.0624458405139237
 29.5705055664679151 30.6902911920698003 11.4424978336205569
 29.5705055664679151 30.6902911920698003 14.3274935008616708
 29.5705055664679151 30.6902911920698003 17.2124891681027847
 29.5705055664679151 30.6902911920698003 20.0974848353438986
 29.5705055664679151 30.6902911920698003 22.9824805025850125
 29.5705055664679151 30.6902911920698003 25.8674761698261264
 29.5705055664679151 30.6902911920698003 28.7524718370672403
 29.5705055664679151 30.6902911920698003 31.6374675043083542
 29.5705055664679151 30.6902911920698003 34.5224631715494681
 29.5705055664679151 30.6902911920698003 37.4074588387905820
 29.5705055664679151 30.6902911920698003 40.2924545060316959
 29.5705055664679151 30.6902911920698003 43.1774501732728098
 29.5705055664679151 30.6902911920698003 46.0624458405139237
 27.1943103213663910 28.9638842916594221 11.4424978336205569
 27.1943103213663910 28.9638842916594221 14.3274935008616708
 27.1943103213663910 28.9638842916594221 17.2124891681027847
 27.1943103213663910 28.9638842916594221 20.0974848353438986
 27.1943103213663910 28.9638842916594221 22.9824805025850125
 27.1943103213663910 28.9638842916594221 25.8674761698261264
 27.1943103213663910 28.9638842916594221 28.7524718370672403
 27.1943103213663910 28.9638842916594221 31.6374675043083542
 27.1943103213663910 28.9638842916594221 34.5224631715494681
 27.1943103213663910 28.9638842916594221 37.4074588387905820
 27.1943103213663910 28.9638842916594221 40.2924545060316959
 27.1943103213663910 28.9638842916594221 43.1774501732728098
 27.1943103213663910 28.9638842916594221 46.0624458405139237
 28.1019361410892863 26.1704992483830772 11.4424978336205569
 28.1019361410892863 26.1704992483830772 14.3274935008616708
 28.1019361410892863 26.1704992483830772 17.2124891681027847
 28.1019361410892863 26.1704992483830772 20.0974848353438986
 28.1019361410892863 26.1704992483830772 22.9824805025850125
 28.1019361410892863 26.1704992483830772 25.8674761698261264
 28.1019361410892863 26.1704992483830772 28.7524718370672403
 28.1019361410892863 26.1704992483830772 31.6374675043083542
 28.1019361410892863 26.1704992483830772 34.5224631715494681
 28.1019361410892863 26.1704992483830772 37.4074588387905820
 28.1019361410892863 26.1704992483830772 40.2924545060316959
 28.1019361410892863 26.1704992483830772 43.1774501732728098
 28.1019361410892863 26.1704992483830772 46.0624458405139237
 31.0390749918465438 26.1704992483830772 11.4424978336205569
 31.0390749918465438 26.1704992483830772 14.3274935008616708
 31.0390749918465438 26.1704992483830772 17.2124891681027847
 31.0390749918465438 26.1704992483830772 20.0974848353438986
 31.0390749918465438 26.1704992483830772 22.9824805025850125
 31.0390749918465438 26.1704992483830772 25.8674761698261264
 31.0390749918465438 26.1704992483830772 28.7524718370672403
 31.0390749918465438 26.1704992483830772 31.6374675043083542
 31.0390749918465438 26.1704992483830772 34.5224631715494681
 31.0390749918465438 26.1704992483830772 37.4074588387905820
 31.0390749918465438 26.1704992483830772 40.2924545060316959
 31.0390749918465438 26.1704992483830772 43.1774501732728098
 31.0390749918465438 26.1704992483830772 46.0624458405139237
 34.3228960566709631 29.7359569288878873 12.8849956672411139
 34.3228960566709631 29.7359569288878873 15.7699913344822278
 34.3228960566709631 29.7359569288878873 18.6549870017233417
 34.3228960566709631 29.7359569288878873 21.5399826689644556
 34.3228960566709631 29.7359569288878873 24.4249783362055695
 34.3228960566709631 29.7359569288878873 27.3099740034466834
 34.3228960566709631 29.7359569288878873 30.1949696706877972
 34.3228960566709631 29.7359569288878873 33.0799653379289111
 34.3228960566709631 29.7359569288878873 35.9649610051700250
 34.3228960566709631 29.7359569288878873 38.8499566724111389
 34.3228960566709631 29.7359569288878873 41.7349523396522528
 34.3228960566709631 29.7359569288878873 44.6199480068933667
 31.9467008115694391 31.4623638292982655 12.8849956672411139
 31.9467008115694391 31.4623638292982655 15.7699913344822278
 31.9467008115694391 31.4623638292982655 18.6549870017233417
 31.9467008115694391 31.4623638292982655 21.5399826689644556
 31.9467008115694391 31.4623638292982655 24.4249783362055695
 31.9467008115694391 31.4623638292982655 27.3099740034466834
 31.9467008115694391 31.4623638292982655 30.1949696706877972
 31.9467008115694391 31.4623638292982655 33.0799653379289111
 31.9467008115694391 31.4623638292982655 35.9649610051700250
 31.9467008115694391 31.4623638292982655 38.8499566724111389
 31.9467008115694391 31.4623638292982655 41.7349523396522528
 31.9467008115694391 31.4623638292982655 44.6199480068933667
 29.5705055664679151 33.1887707297086436 12.8849956672411139
 29.5705055664679151 33.1887707297086436 15.7699913344822278
 29.5705055664679151 33.1887707297086436 18.6549870017233417
 29.5705055664679151 33.1887707297086436 21.5399826689644556
 29.5705055664679151 33.1887707297086436 24.4249783362055695
 29.5705055664679151 33.1887707297086436 27.3099740034466834
 29.5705055664679151 33.1887707297086436 30.1949696706877972
 29.5705055664679151 33.1887707297086436 33.0799653379289111
 29.5705055664679151 33.1887707297086436 35.9649610051700250
 29.5705055664679151 33.1887707297086436 38.8499566724111389
 29.5705055664679151 33.1887707297086436 41.7349523396522528
 29.5705055664679151 33.1887707297086436 44.6199480068933667
 27.1943103213663910 31.4623638292982655 12.8849956672411139
 27.1943103213663910 31.4623638292982655 15.7699913344822278
 27.1943103213663910 31.4623638292982655 18.6549870017233417
 27.1943103213663910 31.4623638292982655 21.5399826689644556
 27.1943103213663910 31.4623638292982655 24.4249783362055695
 27.1943103213663910 31.4623638292982655 27.3099740034466834
 27.1943103213663910 31.4623638292982655 30.1949696706877972
 27.1943103213663910 31.4623638292982655 33.0799653379289111
 27.1943103213663910 31.4623638292982655 35.9649610051700250
 27.1943103213663910 31.4623638292982655 38.8499566724111389
 27.1943103213663910 31.4623638292982655 41.7349523396522528
 27.1943103213663910 31.4623638292982655 44.6199480068933667
 24.8181150762648706 29.7359569288878873 12.8849956672411139
 24.8181150762648706 29.7359569288878873 15.7699913344822278
 24.8181150762648706 29.7359569288878873 18.6549870017233417
 24.8181150762648706 29.7359569288878873 21.5399826689644556
 24.8181150762648706 29.7359569288878873 24.4249783362055695
 24.8181150762648706 29.7359569288878873 27.3099740034466834
 24.8181150762648706 29.7359569288878873 30.1949696706877972
 24.8181150762648706 29.7359569288878873 33.0799653379289111
 24.8181150762648706 29.7359569288878873 35.9649610051700250
 24.8181150762648706 29.7359569288878873 38.8499566724111389
 24.8181150762648706 29.7359569288878873 41.7349523396522528
 24.8181150762648706 29.7359569288878873 44.6199480068933667
 25.7257408959877623 26.9425718856115388 12.8849956672411139
 25.7257408959877623 26.9425718856115388 15.7699913344822278
 25.7257408959877623 26.9425718856115388 18.6549870017233417
 25.7257408959877623 26.9425718856115388 21.5399826689644556
 25.7257408959877623 26.9425718856115388 24.4249783362055695
 25.7257408959877623 26.9425718856115388 27.3099740034466834
 25.7257408959877623 26.9425718856115388 30.1949696706877972
 25.7257408959877623 26.9425718856115388 33.0799653379289111
 25.7257408959877623 26.9425718856115388 35.9649610051700250
 25.7257408959877623 26.9425718856115388 38.8499566724111389
 25.7257408959877623 26.9425718856115388 41.7349523396522528
 25.7257408959877623 26.9425718856115388 44.6199480068933667
 26.6333667157106575 24.1491868423351939 12.8849956672411139
 26.6333667157106575 24.1491868423351939 15.7699913344822278
 26.6333667157106575 24.1491868423351939 18.6549870017233417
 26.6333667157106575 24.1491868423351939 21.5399826689644556
 26.6333667157106575 24.1491868423351939 24.4249783362055695
 26.6333667157106575 24.1491868423351939 27.3099740034466834
 26.6333667157106575 24.1491868423351939 30.1949696706877972
 26.6333667157106575 24.1491868423351939 33.0799653379289111
 26.6333667157106575 24.1491868423351939 35.9649610051700250
 26.6333667157106575 24.1491868423351939 38.8499566724111389
 26.6333667157106575 24.1491868423351939 41.7349523396522528
 26.6333667157106575 24.1491868423351939 44.6199480068933667
 29.5705055664679151 24.1491868423351903 12.8849956672411139
 29.5705055664679151 24.1491868423351903 15.7699913344822278
 29.5705055664679151 24.1491868423351903 18.6549870017233417
 29.5705055664679151 24.1491868423351903 21.5399826689644556
 29.5705055664679151 24.1491868423351903 24.4249783362055695
 29.5705055664679151 24.1491868423351903 27.3099740034466834
 29.5705055664679151 24.1491868423351903 30.1949696706877972
 29.5705055664679151 24.1491868423351903 33.0799653379289111
 29.5705055664679151 24.1491868423351903 35.9649610051700250
 29.5705055664679151 24.1491868423351903 38.8499566724111389
 29.5705055664679151 24.1491868423351903 41.7349523396522528
 29.5705055664679151 24.1491868423351903 44.6199480068933667
 32.5076444172251726 24.1491868423351903 12.8849956672411139
 32.5076444172251726 24.1491868423351903 15.7699913344822278
 32.5076444172251726 24.1491868423351903 18.6549870017233417
 32.5076444172251726 24.1491868423351903 21.5399826689644556
 32.5076444172251726 24.1491868423351903 24.4249783362055695
 32.5076444172251726 24.1491868423351903 27.3099740034466834
 32.5076444172251726 24.1491868423351903 30.1949696706877972
 32.5076444172251726 24.1491868423351903 33.0799653379289111
 32.5076444172251726 24.1491868423351903 35.9649610051700250
 32.5076444172251726 24.1491868423351903 38.8499566724111389
 32.5076444172251726 24.1491868423351903 41.7349523396522528
 32.5076444172251726 24.1491868423351903 44.6199480068933667
 33.4152702369480679 26.9425718856115388 12.8849956672411139
 33.4152702369480679 26.9425718856115388 15.7699913344822278
 33.4152702369480679 26.9425718856115388 18.6549870017233417
 33.4152702369480679 26.9425718856115388 21.5399826689644556
 33.4152702369480679 26.9425718856115388 24.4249783362055695
 33.4152702369480679 26.9425718856115388 27.3099740034466834
 33.4152702369480679 26.9425718856115388 30.1949696706877972
 33.4152702369480679 26.9425718856115388 33.0799653379289111
 33.4152702369480679 26.9425718856115388 35.9649610051700250
 33.4152702369480679 26.9425718856115388 38.8499566724111389
 33.4152702369480679 26.9425718856115388 41.7349523396522528
 33.4152702369480679 26.9425718856115388 44.6199480068933667
 36.6990913017724836 30.5080295661163490 14.3274935008616708
 36.6990913017724836 30.5080295661163490 17.2124891681027847
 36.6990913017724836 30.5080295661163490 20.0974848353438986
 36.6990913017724836 30.5080295661163490 22.9824805025850125
 36.6990913017724836 30.5080295661163490 25.8674761698261264
 36.6990913017724836 30.5080295661163490 28.7524718370672403
 36.6990913017724836 30.5080295661163490 31.6374675043083542
 36.6990913017724836 30.5080295661163490 34.5224631715494681
 36.6990913017724836 30.5080295661163490 37.4074588387905820
 36.6990913017724836 30.5080295661163490 40.2924545060316959
 36.6990913017724836 30.5080295661163490 43.1774501732728098
 34.3228960566709631 32.2344364665267307 14.3274935008616708
 34.3228960566709631 32.2344364665267307 17.2124891681027847
 34.3228960566709631 32.2344364665267307 20.0974848353438986
 34.3228960566709631 32.2344364665267307 22.9824805025850125
 34.3228960566709631 32.2344364665267307 25.8674761698261264
 34.3228960566709631 32.2344364665267307 28.7524718370672403
 34.3228960566709631 32.2344364665267307 31.6374675043083542
 34.3228960566709631 32.2344364665267307 34.5224631715494681
 34.3228960566709631 32.2344364665267307 37.4074588387905820
 34.3228960566709631 32.2344364665267307 40.2924545060316959
 34.3228960566709631 32.2344364665267307 43.1774501732728098
 31.9467008115694391 33.9608433669371053 14.3274935008616708
 31.9467008115694391 33.9608433669371053 17.2124891681027847
 31.9467008115694391 33.9608433669371053 20.0974848353438986
 31.9467008115694391 33.9608433669371053 22.9824805025850125
 31.9467008115694391 33.9608433669371053 25.8674761698261264
 31.9467008115694391 33.9608433669371053 28.7524718370672403
 31.9467008115694391 33.9608433669371053 31.6374675043083542
 31.9467008115694391 33.9608433669371053 34.5224631715494681
 31.9467008115694391 33.9608433669371053 37.4074588387905820
 31.9467008115694391 33.9608433669371053 40.2924545060316959
 31.9467008115694391 33.9608433669371053 43.1774501732728098
 29.5705055664679151 35.6872502673474870 14.3274935008616708
 29.5705055664679151 35.6872502673474870 17.2124891681027847
 29.5705055664679151 35.6872502673474870 20.0974848353438986
 29.5705055664679151 35.6872502673474870 22.9824805025850125
 29.5705055664679151 35.6872502673474870 25.8674761698261264
 29.5705055664679151 35.6872502673474870 28.7524718370672403
 29.5705055664679151 35.6872502673474870 31.6374675043083542
 29.5705055664679151 35.6872502673474870 34.5224631715494681
 29.5705055664679151 35.6872502673474870 37.4074588387905820
 29.5705055664679151 35.6872502673474870 40.2924545060316959
 29.5705055664679151 35.6872502673474870 43.1774501732728098
 27.1943103213663946 33.9608433669371053 14.3274935008616708
 27.1943103213663946 33.9608433669371053 17.2124891681027847
 27.1943103213663946 33.9608433669371053 20.0974848353438986
 27.1943103213663946 33.9608433669371053 22.9824805025850125
 27.1943103213663946 33.9608433669371053 25.8674761698261264
 27.1943103213663946 33.9608433669371053 28.7524718370672403
 27.1943103213663946 33.9608433669371053 31.6374675043083542
 27.1943103213663946 33.9608433669371053 34.5224631715494681
 27.1943103213663946 33.9608433669371053 37.4074588387905820
 27.1943103213663946 33.9608433669371053 40.2924545060316959
 27.1943103213663946 33.9608433669371053 43.1774501732728098
 24.8181150762648706 32.2344364665267307 14.3274935008616708
 24.8181150762648706 32.2344364665267307 17.2124891681027847
 24.8181150762648706 32.2344364665267307 20.0974848353438986
 24.8181150762648706 32.2344364665267307 22.9824805025850125
 24.8181150762648706 32.2344364665267307 25.8674761698261264
 24.8181150762648706 32.2344364665267307 28.7524718370672403
 24.8181150762648706 32.2344364665267307 31.6374675043083542
 24.8181150762648706 32.2344364665267307 34.5224631715494681
 24.8181150762648706 32.2344364665267307 37.4074588387905820
 24.8181150762648706 32.2344364665267307 40.2924545060316959
 24.8181150762648706 32.2344364665267307 43.1774501732728098
 22.4419198311633465 30.5080295661163490 14.3274935008616708
 22.4419198311633465 30.5080295661163490 17.2124891681027847
 22.4419198311633465 30.5080295661163490 20.0974848353438986
 22.4419198311633465 30.5080295661163490 22.9824805025850125
 22.4419198311633465 30.5080295661163490 25.8674761698261264
 22.4419198311633465 30.5080295661163490 28.7524718370672403
 22.4419198311633465 30.5080295661163490 31.6374675043083542
 22.4419198311633465 30.5080295661163490 34.5224631715494681
 22.4419198311633465 30.5080295661163490 37.4074588387905820
 22.4419198311633465 30.5080295661163490 40.2924545060316959
 22.4419198311633465 30.5080295661163490 43.1774501732728098
 23.3495456508862418 27.7146445228400040 14.3274935008616708
 23.3495456508862418 27.7146445228400040 17.2124891681027847
 23.3495456508862418 27.7146445228400040 20.0974848353438986
 23.3495456508862418 27.7146445228400040 22.9824805025850125
 23.3495456508862418 27.7146445228400040 25.8674761698261264
 23.3495456508862418 27.7146445228400040 28.7524718370672403
 23.3495456508862418 27.7146445228400040 31.6374675043083542
 23.3495456508862418 27.7146445228400040 34.5224631715494681
 23.3495456508862418 27.7146445228400040 37.4074588387905820
 23.3495456508862418 27.7146445228400040 40.2924545060316959
 23.3495456508862418 27.7146445228400040 43.1774501732728098
 24.2571714706091370 24.9212594795636555 14.3274935008616708
 24.2571714706091370 24.9212594795636555 17.2124891681027847
 24.2571714706091370 24.9212594795636555 20.0974848353438986
 24.2571714706091370 24.9212594795636555 22.9824805025850125
 24.2571714706091370 24.9212594795636555 25.8674761698261264
 24.2571714706091370 24.9212594795636555 28.7524718370672403
 24.2571714706091370 24.9212594795636555 31.6374675043083542
 24.2571714706091370 24.9212594795636555 34.5224631715494681
 24.2571714706091370 24.9212594795636555 37.4074588387905820
 24.2571714706091370 24.9212594795636555 40.2924545060316959
 24.2571714706091370 24.9212594795636555 43.1774501732728098
 25.1647972903320323 22.1278744362873070 14.3274935008616708
 25.1647972903320323 22.1278744362873070 17.2124891681027847
 25.1647972903320323 22.1278744362873070 20.0974848353438986
 25.1647972903320323 22.1278744362873070 22.9824805025850125
 25.1647972903320323 22.1278744362873070 25.8674761698261264
 25.1647972903320323 22.1278744362873070 28.7524718370672403
 25.1647972903320323 22.1278744362873070 31.6374675043083542
 25.1647972903320323 22.1278744362873070 34.5224631715494681
 25.1647972903320323 22.1278744362873070 37.4074588387905820
 25.1647972903320323 22.1278744362873070 40.2924545060316959
 25.1647972903320323 22.1278744362873070 43.1774501732728098
 28.1019361410892863 22.1278744362873070 14.3274935008616708
 28.1019361410892863 22.1278744362873070 17.2124891681027847
 28.1019361410892863 22.1278744362873070 20.0974848353438986
 28.1019361410892863 22.1278744362873070 22.9824805025850125
 28.1019361410892863 22.1278744362873070 25.8674761698261264
 28.1019361410892863 22.1278744362873070 28.7524718370672403
 28.1019361410892863 22.1278744362873070 31.6374675043083542
 28.1019361410892863 22.1278744362873070 34.5224631715494681
 28.1019361410892863 22.1278744362873070 37.4074588387905820
 28.1019361410892863 22.1278744362873070 40.2924545060316959
 28.1019361410892863 22.1278744362873070 43.1774501732728098
 31.0390749918465403 22.1278744362873070 14.3274935008616708
 31.0390749918465403 22.1278744362873070 17.2124891681027847
 31.0390749918465403 22.1278744362873070 20.0974848353438986
 31.0390749918465403 22.1278744362873070 22.9824805025850125
 31.0390749918465403 22.1278744362873070 25.8674761698261264
 31.0390749918465403 22.1278744362873070 28.7524718370672403
 31.0390749918465403 22.1278744362873070 31.6374675043083542
 31.0390749918465403 22.1278744362873070 34.5224631715494681
 31.0390749918465403 22.1278744362873070 37.4074588387905820
 31.0390749918465403 22.1278744362873070 40.2924545060316959
 31.0390749918465403 22.1278744362873070 43.1774501732728098
 33.9762138426037978 22.1278744362873070 14.3274935008616708
 33.9762138426037978 22.1278744362873070 17.2124891681027847
 33.9762138426037978 22.1278744362873070 20.0974848353438986
 33.9762138426037978 22.1278744362873070 22.9824805025850125
 33.9762138426037978 22.1278744362873070 25.8674761698261264
 33.9762138426037978 22.1278744362873070 28.7524718370672403
 33.9762138426037978 22.1278744362873070 31.6374675043083542
 33.9762138426037978 22.1278744362873070 34.5224631715494681
 33.9762138426037978 22.1278744362873070 37.4074588387905820
 33.9762138426037978 22.1278744362873070 40.2924545060316959
 33.9762138426037978 22.1278744362873070 43.1774501732728098
 34.8838396623266931 24.9212594795636555 14.3274935008616708
 34.8838396623266931 24.9212594795636555 17.2124891681027847
 34.8838396623266931 24.9212594795636555 20.0974848353438986
 34.8838396623266931 24.9212594795636555 22.9824805025850125
 34.8838396623266931 24.9212594795636555 25.8674761698261264
 34.8838396623266931 24.9212594795636555 28.7524718370672403
 34.8838396623266931 24.9212594795636555 31.6374675043083542
 34.8838396623266931 24.9212594795636555 34.5224631715494681
 34.8838396623266931 24.9212594795636555 37.4074588387905820
 34.8838396623266931 24.9212594795636555 40.2924545060316959
 34.8838396623266931 24.9212594795636555 43.1774501732728098
 35.7914654820495883 27.7146445228400005 14.3274935008616708
 35.7914654820495883 27.7146445228400005 17.2124891681027847
 35.7914654820495883 27.7146445228400005 20.0974848353438986
 35.7914654820495883 27.7146445228400005 22.9824805025850125
 35.7914654820495883 27.7146445228400005 25.8674761698261264
 35.7914654820495883 27.7146445228400005 28.7524718370672403
 35.7914654820495883 27.7146445228400005 31.6374675043083542
 35.7914654820495883 27.7146445228400005 34.5224631715494681
 35.7914654820495883 27.7146445228400005 37.4074588387905820
 35.7914654820495883 27.7146445228400005 40.2924545060316959
 35.7914654820495883 27.7146445228400005 43.1774501732728098
 39.0752865468740040 31.2801022033448106 15.7699913344822278
 39.0752865468740040 31.2801022033448106 18.6549870017233417
 39.0752865468740040 31.2801022033448106 21.5399826689644556
 39.0752865468740040 31.2801022033448106 24.4249783362055695
 39.0752865468740040 31.2801022033448106 27.3099740034466834
 39.0752865468740040 31.2801022033448106 30.1949696706877972
 39.0752865468740040 31.2801022033448106 33.0799653379289111
 39.0752865468740040 31.2801022033448106 35.9649610051700250
 39.0752865468740040 31.2801022033448106 38.8499566724111389
 39.0752865468740040 31.2801022033448106 41.7349523396522528
 36.6990913017724836 33.0065091037551923 15.7699913344822278
 36.6990913017724836 33.0065091037551923 18.6549870017233417
 36.6990913017724836 33.0065091037551923 21.5399826689644556
 36.6990913017724836 33.0065091037551923 24.4249783362055695
 36.6990913017724836 33.0065091037551923 27.3099740034466834
 36.6990913017724836 33.0065091037551923 30.1949696706877972
 36.6990913017724836 33.0065091037551923 33.0799653379289111
 36.6990913017724836 33.0065091037551923 35.9649610051700250
 36.6990913017724836 33.0065091037551923 38.8499566724111389
 36.6990913017724836 33.0065091037551923 41.7349523396522528
 34.3228960566709631 34.7329160041655669 15.7699913344822278
 34.3228960566709631 34.7329160041655669 18.6549870017233417
 34.3228960566709631 34.7329160041655669 21.5399826689644556
 34.3228960566709631 34.7329160041655669 24.4249783362055695
 34.3228960566709631 34.7329160041655669 27.3099740034466834
 34.3228960566709631 34.7329160041655669 30.1949696706877972
 34.3228960566709631 34.7329160041655669 33.0799653379289111
 34.3228960566709631 34.7329160041655669 35.9649610051700250
 34.3228960566709631 34.7329160041655669 38.8499566724111389
 34.3228960566709631 34.7329160041655669 41.7349523396522528
 31.9467008115694391 36.4593229045759486 15.7699913344822278
 31.9467008115694391 36.4593229045759486 18.6549870017233417
 31.9467008115694391 36.4593229045759486 21.5399826689644556
 31.9467008115694391 36.4593229045759486 24.4249783362055695
 31.9467008115694391 36.4593229045759486 27.3099740034466834
 31.9467008115694391 36.4593229045759486 30.1949696706877972
 31.9467008115694391 36.4593229045759486 33.0799653379289111
 31.9467008115694391 36.4593229045759486 35.9649610051700250
 31.9467008115694391 36.4593229045759486 38.8499566724111389
 31.9467008115694391 36.4593229045759486 41.7349523396522528
 29.5705055664679151 38.1857298049863232 15.7699913344822278
 29.5705055664679151 38.1857298049863232 18.6549870017233417
 29.5705055664679151 38.1857298049863232 21.5399826689644556
 29.5705055664679151 38.1857298049863232 24.4249783362055695
 29.5705055664679151 38.1857298049863232 27.3099740034466834
 29.5705055664679151 38.1857298049863232 30.1949696706877972
 29.5705055664679151 38.1857298049863232 33.0799653379289111
 29.5705055664679151 38.1857298049863232 35.9649610051700250
 29.5705055664679151 38.1857298049863232 38.8499566724111389
 29.5705055664679151 38.1857298049863232 41.7349523396522528
 27.1943103213663946 36.4593229045759486 15.7699913344822278
 27.1943103213663946 36.4593229045759486 18.6549870017233417
 27.1943103213663946 36.4593229045759486 21.5399826689644556
 27.1943103213663946 36.4593229045759486 24.4249783362055695
 27.1943103213663946 36.4593229045759486 27.3099740034466834
 27.1943103213663946 36.4593229045759486 30.1949696706877972
 27.1943103213663946 36.4593229045759486 33.0799653379289111
 27.1943103213663946 36.4593229045759486 35.9649610051700250
 27.1943103213663946 36.4593229045759486 38.8499566724111389
 27.1943103213663946 36.4593229045759486 41.7349523396522528
 24.8181150762648706 34.7329160041655740 15.7699913344822278
 24.8181150762648706 34.7329160041655740 18.6549870017233417
 24.8181150762648706 34.7329160041655740 21.5399826689644556
 24.8181150762648706 34.7329160041655740 24.4249783362055695
 24.8181150762648706 34.7329160041655740 27.3099740034466834
 24.8181150762648706 34.7329160041655740 30.1949696706877972
 24.8181150762648706 34.7329160041655740 33.0799653379289111
 24.8181150762648706 34.7329160041655740 35.9649610051700250
 24.8181150762648706 34.7329160041655740 38.8499566724111389
 24.8181150762648706 34.7329160041655740 41.7349523396522528
 22.4419198311633465 33.0065091037551923 15.7699913344822278
 22.4419198311633465 33.0065091037551923 18.6549870017233417
 22.4419198311633465 33.0065091037551923 21.5399826689644556
 22.4419198311633465 33.0065091037551923 24.4249783362055695
 22.4419198311633465 33.0065091037551923 27.3099740034466834
 22.4419198311633465 33.0065091037551923 30.1949696706877972
 22.4419198311633465 33.0065091037551923 33.0799653379289111
 22.4419198311633465 33.0065091037551923 35.9649610051700250
 22.4419198311633465 33.0065091037551923 38.8499566724111389
 22.4419198311633465 33.0065091037551923 41.7349523396522528
 20.0657245860618261 31.2801022033448142 15.7699913344822278
 20.0657245860618261 31.2801022033448142 18.6549870017233417
 20.0657245860618261 31.2801022033448142 21.5399826689644556
 20.0657245860618261 31.2801022033448142 24.4249783362055695
 20.0657245860618261 31.2801022033448142 27.3099740034466834
 20.0657245860618261 31.2801022033448142 30.1949696706877972
 20.0657245860618261 31.2801022033448142 33.0799653379289111
 20.0657245860618261 31.2801022033448142 35.9649610051700250
 20.0657245860618261 31.2801022033448142 38.8499566724111389
 20.0657245860618261 31.2801022033448142 41.7349523396522528
 20.9733504057847178 28.4867171600684657 15.7699913344822278
 20.9733504057847178 28.4867171600684657 18.6549870017233417
 20.9733504057847178 28.4867171600684657 21.5399826689644556
 20.9733504057847178 28.4867171600684657 24.4249783362055695
 20.9733504057847178 28.4867171600684657 27.3099740034466834
 20.9733504057847178 28.4867171600684657 30.1949696706877972
 20.9733504057847178 28.4867171600684657 33.0799653379289111
 20.9733504057847178 28.4867171600684657 35.9649610051700250
 20.9733504057847178 28.4867171600684657 38.8499566724111389
 20.9733504057847178 28.4867171600684657 41.7349523396522528
 21.8809762255076130 25.6933321167921207 15.7699913344822278
 21.8809762255076130 25.6933321167921207 18.6549870017233417
 21.8809762255076130 25.6933321167921207 21.5399826689644556
 21.8809762255076130 25.6933321167921207 24.4249783362055695
 21.8809762255076130 25.6933321167921207 27.3099740034466834
 21.8809762255076130 25.6933321167921207 30.1949696706877972
 21.8809762255076130 25.6933321167921207 33.0799653379289111
 21.8809762255076130 25.6933321167921207 35.9649610051700250
 21.8809762255076130 25.6933321167921207 38.8499566724111389
 21.8809762255076130 25.6933321167921207 41.7349523396522528
 22.7886020452305083 22.8999470735157722 15.7699913344822278
 22.7886020452305083 22.8999470735157722 18.6549870017233417
 22.7886020452305083 22.8999470735157722 21.5399826689644556
 22.7886020452305083 22.8999470735157722 24.4249783362055695
 22.7886020452305083 22.8999470735157722 27.3099740034466834
 22.7886020452305083 22.8999470735157722 30.1949696706877972
 22.7886020452305083 22.8999470735157722 33.0799653379289111
 22.7886020452305083 22.8999470735157722 35.9649610051700250
 22.7886020452305083 22.8999470735157722 38.8499566724111389
 22.7886020452305083 22.8999470735157722 41.7349523396522528
 23.6962278649533999 20.1065620302394237 15.7699913344822278
 23.6962278649533999 20.1065620302394237 18.6549870017233417
 23.6962278649533999 20.1065620302394237 21.5399826689644556