Pt 
 1.0000000000000000
    55.8620042192355299    0.0000000000000000    0.0000000000000000
     0.0000000000000000   54.1067928001082379    0.0000000000000000
     0.0000000000000000    0.0000000000000000   44.9467272402613958
 Pt 
 765
Cartesian
 27.9310021096177650 27.4784072758258162 10.0000000000000000
 27.9310021096177650 27.4784072758258162 12.7718585822512658
 27.9310021096177650 27.4784072758258162 15.5437171645025316
 27.9310021096177650 27.4784072758258162 18.3155757467538010
 27.9310021096177650 27.4784072758258162 21.0874343290050632
 27.9310021096177650 27.4784072758258162 23.8592929112563326
 27.9310021096177650 27.4784072758258162 26.6311514935075984
 27.9310021096177650 27.4784072758258162 29.4030100757588642
 27.9310021096177650 27.4784072758258162 32.1748686580101264
 27.9310021096177650 27.4784072758258162 34.9467272402613958
 30.2140132274604056 28.2202025547315927 11.3859292911256329
 30.2140132274604056 28.2202025547315927 14.1577878733768987
 30.2140132274604056 28.2202025547315927 16.9296464556281663
 30.2140132274604056 28.2202025547315927 19.7015050378794321
 30.2140132274604056 28.2202025547315927 22.4733636201306979
 30.2140132274604056 28.2202025547315927 25.2452222023819637
 30.2140132274604056 28.2202025547315927 28.0170807846332295
 30.2140132274604056 28.2202025547315927 30.7889393668844988
 30.2140132274604056 28.2202025547315927 33.5607979491357611
 27.9310021096177650 29.8789072237533304 11.3859292911256329
 27.9310021096177650 29.8789072237533304 14.1577878733768987
 27.9310021096177650 29.8789072237533304 16.9296464556281663
 27.9310021096177650 29.8789072237533304 19.7015050378794321
 27.9310021096177650 29.8789072237533304 22.4733636201306979
 27.9310021096177650 29.8789072237533304 25.2452222023819637
 27.9310021096177650 29.8789072237533304 28.0170807846332295
 27.9310021096177650 29.8789072237533304 30.7889393668844988
 27.9310021096177650 29.8789072237533304 33.5607979491357611
 25.6479909917751243 28.2202025547315962 11.3859292911256329
 25.6479909917751243 28.2202025547315962 14.1577878733768987
 25.6479909917751243 28.2202025547315962 16.9296464556281663
 25.6479909917751243 28.2202025547315962 19.7015050378794321
 25.6479909917751243 28.2202025547315962 22.4733636201306979
 25.6479909917751243 28.2202025547315962 25.2452222023819637
 25.6479909917751243 28.2202025547315962 28.0170807846332295
 25.6479909917751243 28.2202025547315962 30.7889393668844988
 25.6479909917751243 28.2202025547315962 33.5607979491357611
 26.5200236420971223 25.5363620229562827 11.3859292911256329
 26.5200236420971223 25.5363620229562827 14.1577878733768987
 26.5200236420971223 25.5363620229562827 16.9296464556281663
 26.5200236420971223 25.5363620229562827 19.7015050378794321
 26.5200236420971223 25.5363620229562827 22.4733636201306979
 26.5200236420971223 25.5363620229562827 25.2452222023819637
 26.5200236420971223 25.5363620229562827 28.0170807846332295
 26.5200236420971223 25.5363620229562827 30.7889393668844988
 26.5200236420971223 25.5363620229562827 33.5607979491357611
 29.3419805771384077 25.5363620229562791 11.3859292911256329
 29.3419805771384077 25.5363620229562791 14.1577878733768987
 29.3419805771384077 25.5363620229562791 16.9296464556281663
 29.3419805771384077 25.5363620229562791 19.7015050378794321
 29.3419805771384077 25.5363620229562791 22.4733636201306979
 29.3419805771384077 25.5363620229562791 25.2452222023819637
 29.3419805771384077 25.5363620229562791 28.0170807846332295
 29.3419805771384077 25.5363620229562791 30.7889393668844988
 29.3419805771384077 25.5363620229562791 33.5607979491357611
 32.4970243453030463 28.9619978336373727 12.7718585822512658
 32.4970243453030463 28.9619978336373727 15.5437171645025316
 32.4970243453030463 28.9619978336373727 18.3155757467537974
 32.4970243453030463 28.9619978336373727 21.0874343290050632
 32.4970243453030463 28.9619978336373727 23.8592929112563326
 32.4970243453030463 28.9619978336373727 26.6311514935075948
 32.4970243453030463 28.9619978336373727 29.4030100757588642
 32.4970243453030463 28.9619978336373727 32.1748686580101264
 30.2140132274604056 30.6207025026591069 12.7718585822512658
 30.2140132274604056 30.6207025026591069 15.5437171645025316
 30.2140132274604056 30.6207025026591069 18.3155757467537974
 30.2140132274604056 30.6207025026591069 21.0874343290050632
 30.2140132274604056 30.6207025026591069 23.8592929112563326
 30.2140132274604056 30.6207025026591069 26.6311514935075948
 30.2140132274604056 30.6207025026591069 29.4030100757588642
 30.2140132274604056 30.6207025026591069 32.1748686580101264
 27.9310021096177650 32.2794071716808446 12.7718585822512658
 27.9310021096177650 32.2794071716808446 15.5437171645025316
 27.9310021096177650 32.2794071716808446 18.3155757467537974
 27.9310021096177650 32.2794071716808446 21.0874343290050632
 27.9310021096177650 32.2794071716808446 23.8592929112563326
 27.9310021096177650 32.2794071716808446 26.6311514935075948
 27.9310021096177650 32.2794071716808446 29.4030100757588642
 27.9310021096177650 32.2794071716808446 32.1748686580101264
 25.6479909917751243 30.6207025026591069 12.7718585822512658
 25.6479909917751243 30.6207025026591069 15.5437171645025316
 25.6479909917751243 30.6207025026591069 18.3155757467537974
 25.6479909917751243 30.6207025026591069 21.0874343290050632
 25.6479909917751243 30.6207025026591069 23.8592929112563326
 25.6479909917751243 30.6207025026591069 26.6311514935075948
 25.6479909917751243 30.6207025026591069 29.4030100757588642
 25.6479909917751243 30.6207025026591069 32.1748686580101264
 23.3649798739324872 28.9619978336373727 12.7718585822512658
 23.3649798739324872 28.9619978336373727 15.5437171645025316
 23.3649798739324872 28.9619978336373727 18.3155757467537974
 23.3649798739324872 28.9619978336373727 21.0874343290050632
 23.3649798739324872 28.9619978336373727 23.8592929112563326
 23.3649798739324872 28.9619978336373727 26.6311514935075948
 23.3649798739324872 28.9619978336373727 29.4030100757588642
 23.3649798739324872 28.9619978336373727 32.1748686580101264
 24.2370125242544816 26.2781573018620591 12.7718585822512658
 24.2370125242544816 26.2781573018620591 15.5437171645025316
 24.2370125242544816 26.2781573018620591 18.3155757467537974
 24.2370125242544816 26.2781573018620591 21.0874343290050632
 24.2370125242544816 26.2781573018620591 23.8592929112563326
 24.2370125242544816 26.2781573018620591 26.6311514935075948
 24.2370125242544816 26.2781573018620591 29.4030100757588642
 24.2370125242544816 26.2781573018620591 32.1748686580101264
 25.1090451745764796 23.5943167700867455 12.7718585822512658
 25.1090451745764796 23.5943167700867455 15.5437171645025316
 25.1090451745764796 23.5943167700867455 18.3155757467537974
 25.1090451745764796 23.5943167700867455 21.0874343290050632
 25.1090451745764796 23.5943167700867455 23.8592929112563326
 25.1090451745764796 23.5943167700867455 26.6311514935075948
 25.1090451745764796 23.5943167700867455 29.4030100757588642
 25.1090451745764796 23.5943167700867455 32.1748686580101264
 27.9310021096177650 23.5943167700867455 12.7718585822512658
 27.9310021096177650 23.5943167700867455 15.5437171645025316
 27.9310021096177650 23.5943167700867455 18.3155757467537974
 27.9310021096177650 23.5943167700867455 21.0874343290050632
 27.9310021096177650 23.5943167700867455 23.8592929112563326
 27.9310021096177650 23.5943167700867455 26.6311514935075948
 27.9310021096177650 23.5943167700867455 29.4030100757588642
 27.9310021096177650 23.5943167700867455 32.1748686580101264
 30.7529590446590504 23.5943167700867455 12.7718585822512658
 30.7529590446590504 23.5943167700867455 15.5437171645025316
 30.7529590446590504 23.5943167700867455 18.3155757467537974
 30.7529590446590504 23.5943167700867455 21.0874343290050632
 30.7529590446590504 23.5943167700867455 23.8592929112563326
 30.7529590446590504 23.5943167700867455 26.6311514935075948
 30.7529590446590504 23.5943167700867455 29.4030100757588642
 30.7529590446590504 23.5943167700867455 32.1748686580101264
 31.6249916949810483 26.2781573018620591 12.7718585822512658
 31.6249916949810483 26.2781573018620591 15.5437171645025316
 31.6249916949810483 26.2781573018620591 18.3155757467537974
 31.6249916949810483 26.2781573018620591 21.0874343290050632
 31.6249916949810483 26.2781573018620591 23.8592929112563326
 31.6249916949810483 26.2781573018620591 26.6311514935075948
 31.6249916949810483 26.2781573018620591 29.4030100757588642
 31.6249916949810483 26.2781573018620591 32.1748686580101264
 34.7800354631456798 29.7037931125431491 14.1577878733768987
 34.7800354631456798 29.7037931125431491 16.9296464556281663
 34.7800354631456798 29.7037931125431491 19.7015050378794321
 34.7800354631456798 29.7037931125431491 22.4733636201306979
 34.7800354631456798 29.7037931125431491 25.2452222023819637
 34.7800354631456798 29.7037931125431491 28.0170807846332295
 34.7800354631456798 29.7037931125431491 30.7889393668844988
 32.4970243453030463 31.3624977815648869 14.1577878733768987
 32.4970243453030463 31.3624977815648869 16.9296464556281663
 32.4970243453030463 31.3624977815648869 19.7015050378794321
 32.4970243453030463 31.3624977815648869 22.4733636201306979
 32.4970243453030463 31.3624977815648869 25.2452222023819637
 32.4970243453030463 31.3624977815648869 28.0170807846332295
 32.4970243453030463 31.3624977815648869 30.7889393668844988
 30.2140132274604056 33.0212024505866211 14.1577878733768987
 30.2140132274604056 33.0212024505866211 16.9296464556281663
 30.2140132274604056 33.0212024505866211 19.7015050378794321
 30.2140132274604056 33.0212024505866211 22.4733636201306979
 30.2140132274604056 33.0212024505866211 25.2452222023819637
 30.2140132274604056 33.0212024505866211 28.0170807846332295
 30.2140132274604056 33.0212024505866211 30.7889393668844988
 27.9310021096177650 34.6799071196083588 14.1577878733768987
 27.9310021096177650 34.6799071196083588 16.9296464556281663
 27.9310021096177650 34.6799071196083588 19.7015050378794321
 27.9310021096177650 34.6799071196083588 22.4733636201306979
 27.9310021096177650 34.6799071196083588 25.2452222023819637
 27.9310021096177650 34.6799071196083588 28.0170807846332295
 27.9310021096177650 34.6799071196083588 30.7889393668844988
 25.6479909917751243 33.0212024505866211 14.1577878733768987
 25.6479909917751243 33.0212024505866211 16.9296464556281663
 25.6479909917751243 33.0212024505866211 19.7015050378794321
 25.6479909917751243 33.0212024505866211 22.4733636201306979
 25.6479909917751243 33.0212024505866211 25.2452222023819637
 25.6479909917751243 33.0212024505866211 28.0170807846332295
 25.6479909917751243 33.0212024505866211 30.7889393668844988
 23.3649798739324872 31.3624977815648869 14.1577878733768987
 23.3649798739324872 31.3624977815648869 16.9296464556281663
 23.3649798739324872 31.3624977815648869 19.7015050378794321
 23.3649798739324872 31.3624977815648869 22.4733636201306979
 23.3649798739324872 31.3624977815648869 25.2452222023819637
 23.3649798739324872 31.3624977815648869 28.0170807846332295
 23.3649798739324872 31.3624977815648869 30.7889393668844988
 21.0819687560898466 29.7037931125431527 14.1577878733768987
 21.0819687560898466 29.7037931125431527 16.9296464556281663
 21.0819687560898466 29.7037931125431527 19.7015050378794321
 21.0819687560898466 29.7037931125431527 22.4733636201306979
 21.0819687560898466 29.7037931125431527 25.2452222023819637
 21.0819687560898466 29.7037931125431527 28.0170807846332295
 21.0819687560898466 29.7037931125431527 30.7889393668844988
 21.9540014064118445 27.0199525807678391 14.1577878733768987
 21.9540014064118445 27.0199525807678391 16.9296464556281663
 21.9540014064118445 27.0199525807678391 19.7015050378794321
 21.9540014064118445 27.0199525807678391 22.4733636201306979
 21.9540014064118445 27.0199525807678391 25.2452222023819637
 21.9540014064118445 27.0199525807678391 28.0170807846332295
 21.9540014064118445 27.0199525807678391 30.7889393668844988
 22.8260340567338389 24.3361120489925256 14.1577878733768987
 22.8260340567338389 24.3361120489925256 16.9296464556281663
 22.8260340567338389 24.3361120489925256 19.7015050378794321
 22.8260340567338389 24.3361120489925256 22.4733636201306979
 22.8260340567338389 24.3361120489925256 25.2452222023819637
 22.8260340567338389 24.3361120489925256 28.0170807846332295
 22.8260340567338389 24.3361120489925256 30.7889393668844988
 23.6980667070558368 21.6522715172172120 14.1577878733768987
 23.6980667070558368 21.6522715172172120 16.9296464556281663
 23.6980667070558368 21.6522715172172120 19.7015050378794321
 23.6980667070558368 21.6522715172172120 22.4733636201306979
 23.6980667070558368 21.6522715172172120 25.2452222023819637
 23.6980667070558368 21.6522715172172120 28.0170807846332295
 23.6980667070558368 21.6522715172172120 30.7889393668844988
 26.5200236420971223 21.6522715172172084 14.1577878733768987
 26.5200236420971223 21.6522715172172084 16.9296464556281663
 26.5200236420971223 21.6522715172172084 19.7015050378794321
 26.5200236420971223 21.6522715172172084 22.4733636201306979
 26.5200236420971223 21.6522715172172084 25.2452222023819637
 26.5200236420971223 21.6522715172172084 28.0170807846332295
 26.5200236420971223 21.6522715172172084 30.7889393668844988
 29.3419805771384077 21.6522715172172084 14.1577878733768987
 29.3419805771384077 21.6522715172172084 16.9296464556281663
 29.3419805771384077 21.6522715172172084 19.7015050378794321
 29.3419805771384077 21.6522715172172084 22.4733636201306979
 29.3419805771384077 21.6522715172172084 25.2452222023819637
 29.3419805771384077 21.6522715172172084 28.0170807846332295
 29.3419805771384077 21.6522715172172084 30.7889393668844988
 32.1639375121796931 21.6522715172172084 14.1577878733768987
 32.1639375121796931 21.6522715172172084 16.9296464556281663
 32.1639375121796931 21.6522715172172084 19.7015050378794321
 32.1639375121796931 21.6522715172172084 22.4733636201306979
 32.1639375121796931 21.6522715172172084 25.2452222023819637
 32.1639375121796931 21.6522715172172084 28.0170807846332295
 32.1639375121796931 21.6522715172172084 30.7889393668844988
 33.0359701625016910 24.3361120489925220 14.1577878733768987
 33.0359701625016910 24.3361120489925220 16.9296464556281663
 33.0359701625016910 24.3361120489925220 19.7015050378794321
 33.0359701625016910 24.3361120489925220 22.4733636201306979
 33.0359701625016910 24.3361120489925220 25.2452222023819637
 33.0359701625016910 24.3361120489925220 28.0170807846332295
 33.0359701625016910 24.3361120489925220 30.7889393668844988
 33.9080028128236819 27.0199525807678356 14.1577878733768987
 33.9080028128236819 27.0199525807678356 16.9296464556281663
 33.9080028128236819 27.0199525807678356 19.7015050378794321
 33.9080028128236819 27.0199525807678356 22.4733636201306979
 33.9080028128236819 27.0199525807678356 25.2452222023819637
 33.9080028128236819 27.0199525807678356 28.0170807846332295
 33.9080028128236819 27.0199525807678356 30.7889393668844988
 37.0630465809883205 30.4455883914489256 15.5437171645025316
 37.0630465809883205 30.4455883914489256 18.3155757467538010
 37.0630465809883205 30.4455883914489256 21.0874343290050632
 37.0630465809883205 30.4455883914489256 23.8592929112563326
 37.0630465809883205 30.4455883914489256 26.6311514935075984
 37.0630465809883205 30.4455883914489256 29.4030100757588642
 34.7800354631456798 32.1042930604706669 15.5437171645025316
 34.7800354631456798 32.1042930604706669 18.3155757467538010
 34.7800354631456798 32.1042930604706669 21.0874343290050632
 34.7800354631456798 32.1042930604706669 23.8592929112563326
 34.7800354631456798 32.1042930604706669 26.6311514935075984
 34.7800354631456798 32.1042930604706669 29.4030100757588642
 32.4970243453030463 33.7629977294923975 15.5437171645025316
 32.4970243453030463 33.7629977294923975 18.3155757467538010
 32.4970243453030463 33.7629977294923975 21.0874343290050632
 32.4970243453030463 33.7629977294923975 23.8592929112563326
 32.4970243453030463 33.7629977294923975 26.6311514935075984
 32.4970243453030463 33.7629977294923975 29.4030100757588642
 30.2140132274604056 35.4217023985141353 15.5437171645025316
 30.2140132274604056 35.4217023985141353 18.3155757467538010
 30.2140132274604056 35.4217023985141353 21.0874343290050632
 30.2140132274604056 35.4217023985141353 23.8592929112563326
 30.2140132274604056 35.4217023985141353 26.6311514935075984
 30.2140132274604056 35.4217023985141353 29.4030100757588642
 27.9310021096177650 37.0804070675358730 15.5437171645025316
 27.9310021096177650 37.0804070675358730 18.3155757467538010
 27.9310021096177650 37.0804070675358730 21.0874343290050632
 27.9310021096177650 37.0804070675358730 23.8592929112563326
 27.9310021096177650 37.0804070675358730 26.6311514935075984
 27.9310021096177650 37.0804070675358730 29.4030100757588642
 25.6479909917751243 35.4217023985141353 15.5437171645025316
 25.6479909917751243 35.4217023985141353 18.3155757467538010
 25.6479909917751243 35.4217023985141353 21.0874343290050632
 25.6479909917751243 35.4217023985141353 23.8592929112563326
 25.6479909917751243 35.4217023985141353 26.6311514935075984
 25.6479909917751243 35.4217023985141353 29.4030100757588642
 23.3649798739324872 33.7629977294923975 15.5437171645025316
 23.3649798739324872 33.7629977294923975 18.3155757467538010
 23.3649798739324872 33.7629977294923975 21.0874343290050632
 23.3649798739324872 33.7629977294923975 23.8592929112563326
 23.3649798739324872 33.7629977294923975 26.6311514935075984
 23.3649798739324872 33.7629977294923975 29.4030100757588642
 21.0819687560898466 32.1042930604706669 15.5437171645025316
 21.0819687560898466 32.1042930604706669 18.3155757467538010
 21.0819687560898466 32.1042930604706669 21.0874343290050632
 21.0819687560898466 32.1042930604706669 23.8592929112563326
 21.0819687560898466 32.1042930604706669 26.6311514935075984
 21.0819687560898466 32.1042930604706669 29.4030100757588642
 18.7989576382472094 30.4455883914489291 15.5437171645025316
 18.7989576382472094 30.4455883914489291 18.3155757467538010
 18.7989576382472094 30.4455883914489291 21.0874343290050632
 18.7989576382472094 30.4455883914489291 23.8592929112563326
 18.7989576382472094 30.4455883914489291 26.6311514935075984
 18.7989576382472094 30.4455883914489291 29.4030100757588642
 19.6709902885692038 27.7617478596736156 15.5437171645025316
 19.6709902885692038 27.7617478596736156 18.3155757467538010
 19.6709902885692038 27.7617478596736156 21.0874343290050632
 19.6709902885692038 27.7617478596736156 23.8592929112563326
 19.6709902885692038 27.7617478596736156 26.6311514935075984
 19.6709902885692038 27.7617478596736156 29.4030100757588642
 20.5430229388911982 25.0779073278983020 15.5437171645025316
 20.5430229388911982 25.0779073278983020 18.3155757467538010
 20.5430229388911982 25.0779073278983020 21.0874343290050632
 20.5430229388911982 25.0779073278983020 23.8592929112563326
 20.5430229388911982 25.0779073278983020 26.6311514935075984
 20.5430229388911982 25.0779073278983020 29.4030100757588642
 21.4150555892131962 22.3940667961229884 15.5437171645025316
 21.4150555892131962 22.3940667961229884 18.3155757467538010
 21.4150555892131962 22.3940667961229884 21.0874343290050632
 21.4150555892131962 22.3940667961229884 23.8592929112563326
 21.4150555892131962 22.3940667961229884 26.6311514935075984
 21.4150555892131962 22.3940667961229884 29.4030100757588642
 22.2870882395351941 19.7102262643476749 15.5437171645025316
 22.2870882395351941 19.7102262643476749 18.3155757467538010
 22.2870882395351941 19.7102262643476749 21.0874343290050632
 22.2870882395351941 19.7102262643476749 23.8592929112563326
 22.2870882395351941 19.7102262643476749 26.6311514935075984
 22.2870882395351941 19.7102262643476749 29.4030100757588642
 25.1090451745764796 19.7102262643476749 15.5437171645025316
 25.1090451745764796 19.7102262643476749 18.3155757467538010
 25.1090451745764796 19.7102262643476749 21.0874343290050632
 25.1090451745764796 19.7102262643476749 23.8592929112563326
 25.1090451745764796 19.7102262643476749 26.6311514935075984
 25.1090451745764796 19.7102262643476749 29.4030100757588642
 27.9310021096177650 19.7102262643476749 15.5437171645025316
 27.9310021096177650 19.7102262643476749 18.3155757467538010
 27.9310021096177650 19.7102262643476749 21.0874343290050632
 27.9310021096177650 19.7102262643476749 23.8592929112563326
 27.9310021096177650 19.7102262643476749 26.6311514935075984
 27.9310021096177650 19.7102262643476749 29.4030100757588642
 30.7529590446590504 19.7102262643476749 15.5437171645025316
 30.7529590446590504 19.7102262643476749 18.3155757467538010
 30.7529590446590504 19.7102262643476749 21.0874343290050632
 30.7529590446590504 19.7102262643476749 23.8592929112563326
 30.7529590446590504 19.7102262643476749 26.6311514935075984
 30.7529590446590504 19.7102262643476749 29.4030100757588642
 33.5749159797003358 19.7102262643476749 15.5437171645025316
 33.5749159797003358 19.7102262643476749 18.3155757467538010
 33.5749159797003358 19.7102262643476749 21.0874343290050632
 33.5749159797003358 19.7102262643476749 23.8592929112563326
 33.5749159797003358 19.7102262643476749 26.6311514935075984
 33.5749159797003358 19.7102262643476749 29.4030100757588642
 34.4469486300223338 22.3940667961229849 15.5437171645025316
 34.4469486300223338 22.3940667961229849 18.3155757467538010
 34.4469486300223338 22.3940667961229849 21.0874343290050632
 34.4469486300223338 22.3940667961229849 23.8592929112563326
 34.4469486300223338 22.3940667961229849 26.6311514935075984
 34.4469486300223338 22.3940667961229849 29.4030100757588642
 35.3189812803443317 25.0779073278983020 15.5437171645025316
 35.3189812803443317 25.0779073278983020 18.3155757467538010
 35.3189812803443317 25.0779073278983020 21.0874343290050632
 35.3189812803443317 25.0779073278983020 23.8592929112563326
 35.3189812803443317 25.0779073278983020 26.6311514935075984
 35.3189812803443317 25.0779073278983020 29.4030100757588642
 36.1910139306663297 27.7617478596736120 15.5437171645025316
 36.1910139306663297 27.7617478596736120 18.3155757467538010
 36.1910139306663297 27.7617478596736120 21.0874343290050632
 36.1910139306663297 27.7617478596736120 23.8592929112563326
 36.1910139306663297 27.7617478596736120 26.6311514935075984
 36.1910139306663297 27.7617478596736120 29.4030100757588642
 39.3460576988309612 31.1873836703547056 16.9296464556281663
 39.3460576988309612 31.1873836703547056 19.7015050378794321
 39.3460576988309612 31.1873836703547056 22.4733636201306979
 39.3460576988309612 31.1873836703547056 25.2452222023819637
 39.3460576988309612 31.1873836703547056 28.0170807846332295
 37.0630465809883205 32.8460883393764433 16.9296464556281663
 37.0630465809883205 32.8460883393764433 19.7015050378794321
 37.0630465809883205 32.8460883393764433 22.4733636201306979
 37.0630465809883205 32.8460883393764433 25.2452222023819637
 37.0630465809883205 32.8460883393764433 28.0170807846332295
 34.7800354631456798 34.5047930083981811 16.9296464556281663
 34.7800354631456798 34.5047930083981811 19.7015050378794321
 34.7800354631456798 34.5047930083981811 22.4733636201306979
 34.7800354631456798 34.5047930083981811 25.2452222023819637
 34.7800354631456798 34.5047930083981811 28.0170807846332295
 32.4970243453030463 36.1634976774199117 16.9296464556281663
 32.4970243453030463 36.1634976774199117 19.7015050378794321
 32.4970243453030463 36.1634976774199117 22.4733636201306979
 32.4970243453030463 36.1634976774199117 25.2452222023819637
 32.4970243453030463 36.1634976774199117 28.0170807846332295
 30.2140132274604056 37.8222023464416495 16.9296464556281663
 30.2140132274604056 37.8222023464416495 19.7015050378794321
 30.2140132274604056 37.8222023464416495 22.4733636201306979
 30.2140132274604056 37.8222023464416495 25.2452222023819637
 30.2140132274604056 37.8222023464416495 28.0170807846332295
 27.9310021096177650 39.4809070154633872 16.9296464556281663
 27.9310021096177650 39.4809070154633872 19.7015050378794321
 27.9310021096177650 39.4809070154633872 22.4733636201306979
 27.9310021096177650 39.4809070154633872 25.2452222023819637
 27.9310021096177650 39.4809070154633872 28.0170807846332295
 25.6479909917751243 37.8222023464416495 16.9296464556281663
 25.6479909917751243 37.8222023464416495 19.7015050378794321
 25.6479909917751243 37.8222023464416495 22.4733636201306979
 25.6479909917751243 37.8222023464416495 25.2452222023819637
 25.6479909917751243 37.8222023464416495 28.0170807846332295
 23.3649798739324872 36.1634976774199117 16.9296464556281663
 23.3649798739324872 36.1634976774199117 19.7015050378794321
 23.3649798739324872 36.1634976774199117 22.4733636201306979
 23.3649798739324872 36.1634976774199117 25.2452222023819637
 23.3649798739324872 36.1634976774199117 28.0170807846332295
 21.0819687560898466 34.5047930083981811 16.9296464556281663
 21.0819687560898466 34.5047930083981811 19.7015050378794321
 21.0819687560898466 34.5047930083981811 22.4733636201306979
 21.0819687560898466 34.5047930083981811 25.2452222023819637
 21.0819687560898466 34.5047930083981811 28.0170807846332295
 18.7989576382472094 32.8460883393764433 16.9296464556281663
 18.7989576382472094 32.8460883393764433 19.7015050378794321
 18.7989576382472094 32.8460883393764433 22.4733636201306979
 18.7989576382472094 32.8460883393764433 25.2452222023819637
 18.7989576382472094 32.8460883393764433 28.0170807846332295
 16.5159465204045688 31.1873836703547092 16.9296464556281663
 16.5159465204045688 31.1873836703547092 19.7015050378794321
 16.5159465204045688 31.1873836703547092 22.4733636201306979
 16.5159465204045688 31.1873836703547092 25.2452222023819637
 16.5159465204045688 31.1873836703547092 28.0170807846332295
 17.3879791707265667 28.5035431385793956 16.9296464556281663
 17.3879791707265667 28.5035431385793956 19.7015050378794321
 17.3879791707265667 28.5035431385793956 22.4733636201306979
 17.3879791707265667 28.5035431385793956 25.2452222023819637
 17.3879791707265667 28.5035431385793956 28.0170807846332295
 18.2600118210485611 25.8197026068040820 16.9296464556281663
 18.2600118210485611 25.8197026068040820 19.7015050378794321
 18.2600118210485611 25.8197026068040820 22.4733636201306979
 18.2600118210485611 25.8197026068040820 25.2452222023819637
 18.2600118210485611 25.8197026068040820 28.0170807846332295
 19.1320444713705555 23.1358620750287685 16.9296464556281663
 19.1320444713705555 23.1358620750287685 19.7015050378794321
 19.1320444713705555 23.1358620750287685 22.4733636201306979
 19.1320444713705555 23.1358620750287685 25.2452222023819637
 19.1320444713705555 23.1358620750287685 28.0170807846332295
 20.0040771216925535 20.4520215432534549 16.9296464556281663
 20.0040771216925535 20.4520215432534549 19.7015050378794321
 20.0040771216925535 20.4520215432534549 22.4733636201306979
 20.0040771216925535 20.4520215432534549 25.2452222023819637
 20.0040771216925535 20.4520215432534549 28.0170807846332295
 20.8761097720145514 17.7681810114781413 16.9296464556281663
 20.8761097720145514 17.7681810114781413 19.7015050378794321
 20.8761097720145514 17.7681810114781413 22.4733636201306979
 20.8761097720145514 17.7681810114781413 25.2452222023819637
 20.8761097720145514 17.7681810114781413 28.0170807846332295
 23.6980667070558368 17.7681810114781413 16.9296464556281663
 23.6980667070558368 17.7681810114781413 19.7015050378794321
 23.6980667070558368 17.7681810114781413 22.4733636201306979
 23.6980667070558368 17.7681810114781413 25.2452222023819637
 23.6980667070558368 17.7681810114781413 28.0170807846332295
 26.5200236420971187 17.7681810114781413 16.9296464556281663
 26.5200236420971187 17.7681810114781413 19.7015050378794321
 26.5200236420971187 17.7681810114781413 22.4733636201306979
 26.5200236420971187 17.7681810114781413 25.2452222023819637
 26.5200236420971187 17.7681810114781413 28.0170807846332295
 29.3419805771384041 17.7681810114781378 16.9296464556281663
 29.3419805771384041 17.7681810114781378 19.7015050378794321
 29.3419805771384041 17.7681810114781378 22.4733636201306979
 29.3419805771384041 17.7681810114781378 25.2452222023819637
 29.3419805771384041 17.7681810114781378 28.0170807846332295
 32.1639375121796931 17.7681810114781378 16.9296464556281663
 32.1639375121796931 17.7681810114781378 19.7015050378794321
 32.1639375121796931 17.7681810114781378 22.4733636201306979
 32.1639375121796931 17.7681810114781378 25.2452222023819637
 32.1639375121796931 17.7681810114781378 28.0170807846332295
 34.9858944472209714 17.7681810114781378 16.9296464556281663
 34.9858944472209714 17.7681810114781378 19.7015050378794321
 34.9858944472209714 17.7681810114781378 22.4733636201306979
 34.9858944472209714 17.7681810114781378 25.2452222023819637
 34.9858944472209714 17.7681810114781378 28.0170807846332295
 35.8579270975429694 20.4520215432534513 16.9296464556281663
 35.8579270975429694 20.4520215432534513 19.7015050378794321
 35.8579270975429694 20.4520215432534513 22.4733636201306979
 35.8579270975429694 20.4520215432534513 25.2452222023819637
 35.8579270975429694 20.4520215432534513 28.0170807846332295
 36.7299597478649673 23.1358620750287649 16.9296464556281663
 36.7299597478649673 23.1358620750287649 19.7015050378794321
 36.7299597478649673 23.1358620750287649 22.4733636201306979
 36.7299597478649673 23.1358620750287649 25.2452222023819637
 36.7299597478649673 23.1358620750287649 28.0170807846332295
 37.6019923981869653 25.8197026068040785 16.9296464556281663
 37.6019923981869653 25.8197026068040785 19.7015050378794321
 37.6019923981869653 25.8197026068040785 22.4733636201306979
 37.6019923981869653 25.8197026068040785 25.2452222023819637
 37.6019923981869653 25.8197026068040785 28.0170807846332295
 38.4740250485089632 28.5035431385793920 16.9296464556281663
 38.4740250485089632 28.5035431385793920 19.7015050378794321
 38.4740250485089632 28.5035431385793920 22.4733636201306979
 38.4740250485089632 28.5035431385793920 25.2452222023819637
 38.4740250485089632 28.5035431385793920 28.0170807846332295
 41.6290688166736018 31.9291789492604821 18.3155757467537974
 41.6290688166736018 31.9291789492604821 21.0874343290050632