Pt 
 1.0000000000000000
    43.9080028128236819    0.0000000000000000    0.0000000000000000
     0.0000000000000000   42.7378618667388253    0.0000000000000000
     0.0000000000000000    0.0000000000000000   50.4904444047639274
 Pt 
 692
Cartesian
 21.9540014064118409 21.6522715172172120 10.0000000000000036
 21.9540014064118409 21.6522715172172120 12.7718585822512694
 21.9540014064118409 21.6522715172172120 15.5437171645025352
 21.9540014064118409 21.6522715172172120 18.3155757467538010
 21.9540014064118409 21.6522715172172120 21.0874343290050703
 21.9540014064118409 21.6522715172172120 23.8592929112563326
 21.9540014064118409 21.6522715172172120 26.6311514935076019
 21.9540014064118409 21.6522715172172120 29.4030100757588677
 21.9540014064118409 21.6522715172172120 32.1748686580101335
 21.9540014064118409 21.6522715172172120 34.9467272402613958
 21.9540014064118409 21.6522715172172120 37.7185858225126651
 21.9540014064118409 21.6522715172172120 40.4904444047639345
 24.2370125242544816 22.3940667961229884 11.3859292911256365
 24.2370125242544816 22.3940667961229884 14.1577878733769023
 24.2370125242544816 22.3940667961229884 16.9296464556281698
 24.2370125242544816 22.3940667961229884 19.7015050378794356
 24.2370125242544816 22.3940667961229884 22.4733636201307014
 24.2370125242544816 22.3940667961229884 25.2452222023819672
 24.2370125242544816 22.3940667961229884 28.0170807846332366
 24.2370125242544816 22.3940667961229884 30.7889393668844988
 24.2370125242544816 22.3940667961229884 33.5607979491357682
 24.2370125242544816 22.3940667961229884 36.3326565313870304
 24.2370125242544816 22.3940667961229884 39.1045151136382998
 21.9540014064118409 24.0527714651447262 11.3859292911256365
 21.9540014064118409 24.0527714651447262 14.1577878733769023
 21.9540014064118409 24.0527714651447262 16.9296464556281698
 21.9540014064118409 24.0527714651447262 19.7015050378794356
 21.9540014064118409 24.0527714651447262 22.4733636201307014
 21.9540014064118409 24.0527714651447262 25.2452222023819672
 21.9540014064118409 24.0527714651447262 28.0170807846332366
 21.9540014064118409 24.0527714651447262 30.7889393668844988
 21.9540014064118409 24.0527714651447262 33.5607979491357682
 21.9540014064118409 24.0527714651447262 36.3326565313870304
 21.9540014064118409 24.0527714651447262 39.1045151136382998
 19.6709902885692003 22.3940667961229920 11.3859292911256365
 19.6709902885692003 22.3940667961229920 14.1577878733769023
 19.6709902885692003 22.3940667961229920 16.9296464556281698
 19.6709902885692003 22.3940667961229920 19.7015050378794356
 19.6709902885692003 22.3940667961229920 22.4733636201307014
 19.6709902885692003 22.3940667961229920 25.2452222023819672
 19.6709902885692003 22.3940667961229920 28.0170807846332366
 19.6709902885692003 22.3940667961229920 30.7889393668844988
 19.6709902885692003 22.3940667961229920 33.5607979491357682
 19.6709902885692003 22.3940667961229920 36.3326565313870304
 19.6709902885692003 22.3940667961229920 39.1045151136382998
 20.5430229388911982 19.7102262643476784 11.3859292911256365
 20.5430229388911982 19.7102262643476784 14.1577878733769023
 20.5430229388911982 19.7102262643476784 16.9296464556281698
 20.5430229388911982 19.7102262643476784 19.7015050378794356
 20.5430229388911982 19.7102262643476784 22.4733636201307014
 20.5430229388911982 19.7102262643476784 25.2452222023819672
 20.5430229388911982 19.7102262643476784 28.0170807846332366
 20.5430229388911982 19.7102262643476784 30.7889393668844988
 20.5430229388911982 19.7102262643476784 33.5607979491357682
 20.5430229388911982 19.7102262643476784 36.3326565313870304
 20.5430229388911982 19.7102262643476784 39.1045151136382998
 23.3649798739324837 19.7102262643476749 11.3859292911256365
 23.3649798739324837 19.7102262643476749 14.1577878733769023
 23.3649798739324837 19.7102262643476749 16.9296464556281698
 23.3649798739324837 19.7102262643476749 19.7015050378794356
 23.3649798739324837 19.7102262643476749 22.4733636201307014
 23.3649798739324837 19.7102262643476749 25.2452222023819672
 23.3649798739324837 19.7102262643476749 28.0170807846332366
 23.3649798739324837 19.7102262643476749 30.7889393668844988
 23.3649798739324837 19.7102262643476749 33.5607979491357682
 23.3649798739324837 19.7102262643476749 36.3326565313870304
 23.3649798739324837 19.7102262643476749 39.1045151136382998
 26.5200236420971187 23.1358620750287685 12.7718585822512694
 26.5200236420971187 23.1358620750287685 15.5437171645025352
 26.5200236420971187 23.1358620750287685 18.3155757467538010
 26.5200236420971187 23.1358620750287685 21.0874343290050703
 26.5200236420971187 23.1358620750287685 23.8592929112563326
 26.5200236420971187 23.1358620750287685 26.6311514935076019
 26.5200236420971187 23.1358620750287685 29.4030100757588677
 26.5200236420971187 23.1358620750287685 32.1748686580101335
 26.5200236420971187 23.1358620750287685 34.9467272402613958
 26.5200236420971187 23.1358620750287685 37.7185858225126651
 24.2370125242544816 24.7945667440505026 12.7718585822512694
 24.2370125242544816 24.7945667440505026 15.5437171645025352
 24.2370125242544816 24.7945667440505026 18.3155757467538010
 24.2370125242544816 24.7945667440505026 21.0874343290050703
 24.2370125242544816 24.7945667440505026 23.8592929112563326
 24.2370125242544816 24.7945667440505026 26.6311514935076019
 24.2370125242544816 24.7945667440505026 29.4030100757588677
 24.2370125242544816 24.7945667440505026 32.1748686580101335
 24.2370125242544816 24.7945667440505026 34.9467272402613958
 24.2370125242544816 24.7945667440505026 37.7185858225126651
 21.9540014064118409 26.4532714130722404 12.7718585822512694
 21.9540014064118409 26.4532714130722404 15.5437171645025352
 21.9540014064118409 26.4532714130722404 18.3155757467538010
 21.9540014064118409 26.4532714130722404 21.0874343290050703
 21.9540014064118409 26.4532714130722404 23.8592929112563326
 21.9540014064118409 26.4532714130722404 26.6311514935076019
 21.9540014064118409 26.4532714130722404 29.4030100757588677
 21.9540014064118409 26.4532714130722404 32.1748686580101335
 21.9540014064118409 26.4532714130722404 34.9467272402613958
 21.9540014064118409 26.4532714130722404 37.7185858225126651
 19.6709902885692003 24.7945667440505062 12.7718585822512694
 19.6709902885692003 24.7945667440505062 15.5437171645025352
 19.6709902885692003 24.7945667440505062 18.3155757467538010
 19.6709902885692003 24.7945667440505062 21.0874343290050703
 19.6709902885692003 24.7945667440505062 23.8592929112563326
 19.6709902885692003 24.7945667440505062 26.6311514935076019
 19.6709902885692003 24.7945667440505062 29.4030100757588677
 19.6709902885692003 24.7945667440505062 32.1748686580101335
 19.6709902885692003 24.7945667440505062 34.9467272402613958
 19.6709902885692003 24.7945667440505062 37.7185858225126651
 17.3879791707265632 23.1358620750287685 12.7718585822512694
 17.3879791707265632 23.1358620750287685 15.5437171645025352
 17.3879791707265632 23.1358620750287685 18.3155757467538010
 17.3879791707265632 23.1358620750287685 21.0874343290050703
 17.3879791707265632 23.1358620750287685 23.8592929112563326
 17.3879791707265632 23.1358620750287685 26.6311514935076019
 17.3879791707265632 23.1358620750287685 29.4030100757588677
 17.3879791707265632 23.1358620750287685 32.1748686580101335
 17.3879791707265632 23.1358620750287685 34.9467272402613958
 17.3879791707265632 23.1358620750287685 37.7185858225126651
 18.2600118210485576 20.4520215432534549 12.7718585822512694
 18.2600118210485576 20.4520215432534549 15.5437171645025352
 18.2600118210485576 20.4520215432534549 18.3155757467538010
 18.2600118210485576 20.4520215432534549 21.0874343290050703
 18.2600118210485576 20.4520215432534549 23.8592929112563326
 18.2600118210485576 20.4520215432534549 26.6311514935076019
 18.2600118210485576 20.4520215432534549 29.4030100757588677
 18.2600118210485576 20.4520215432534549 32.1748686580101335
 18.2600118210485576 20.4520215432534549 34.9467272402613958
 18.2600118210485576 20.4520215432534549 37.7185858225126651
 19.1320444713705555 17.7681810114781413 12.7718585822512694
 19.1320444713705555 17.7681810114781413 15.5437171645025352
 19.1320444713705555 17.7681810114781413 18.3155757467538010
 19.1320444713705555 17.7681810114781413 21.0874343290050703
 19.1320444713705555 17.7681810114781413 23.8592929112563326
 19.1320444713705555 17.7681810114781413 26.6311514935076019
 19.1320444713705555 17.7681810114781413 29.4030100757588677
 19.1320444713705555 17.7681810114781413 32.1748686580101335
 19.1320444713705555 17.7681810114781413 34.9467272402613958
 19.1320444713705555 17.7681810114781413 37.7185858225126651
 21.9540014064118409 17.7681810114781413 12.7718585822512694
 21.9540014064118409 17.7681810114781413 15.5437171645025352
 21.9540014064118409 17.7681810114781413 18.3155757467538010
 21.9540014064118409 17.7681810114781413 21.0874343290050703
 21.9540014064118409 17.7681810114781413 23.8592929112563326
 21.9540014064118409 17.7681810114781413 26.6311514935076019
 21.9540014064118409 17.7681810114781413 29.4030100757588677
 21.9540014064118409 17.7681810114781413 32.1748686580101335
 21.9540014064118409 17.7681810114781413 34.9467272402613958
 21.9540014064118409 17.7681810114781413 37.7185858225126651
 24.7759583414531264 17.7681810114781413 12.7718585822512694
 24.7759583414531264 17.7681810114781413 15.5437171645025352
 24.7759583414531264 17.7681810114781413 18.3155757467538010
 24.7759583414531264 17.7681810114781413 21.0874343290050703
 24.7759583414531264 17.7681810114781413 23.8592929112563326
 24.7759583414531264 17.7681810114781413 26.6311514935076019
 24.7759583414531264 17.7681810114781413 29.4030100757588677
 24.7759583414531264 17.7681810114781413 32.1748686580101335
 24.7759583414531264 17.7681810114781413 34.9467272402613958
 24.7759583414531264 17.7681810114781413 37.7185858225126651
 25.6479909917751243 20.4520215432534549 12.7718585822512694
 25.6479909917751243 20.4520215432534549 15.5437171645025352
 25.6479909917751243 20.4520215432534549 18.3155757467538010
 25.6479909917751243 20.4520215432534549 21.0874343290050703
 25.6479909917751243 20.4520215432534549 23.8592929112563326
 25.6479909917751243 20.4520215432534549 26.6311514935076019
 25.6479909917751243 20.4520215432534549 29.4030100757588677
 25.6479909917751243 20.4520215432534549 32.1748686580101335
 25.6479909917751243 20.4520215432534549 34.9467272402613958
 25.6479909917751243 20.4520215432534549 37.7185858225126651
 28.8030347599397594 23.8776573539345449 14.1577878733769023
 28.8030347599397594 23.8776573539345449 16.9296464556281663
 28.8030347599397594 23.8776573539345449 19.7015050378794356
 28.8030347599397594 23.8776573539345449 22.4733636201307014
 28.8030347599397594 23.8776573539345449 25.2452222023819672
 28.8030347599397594 23.8776573539345449 28.0170807846332330
 28.8030347599397594 23.8776573539345449 30.7889393668844988
 28.8030347599397594 23.8776573539345449 33.5607979491357682
 28.8030347599397594 23.8776573539345449 36.3326565313870304
 26.5200236420971187 25.5363620229562827 14.1577878733769023
 26.5200236420971187 25.5363620229562827 16.9296464556281663
 26.5200236420971187 25.5363620229562827 19.7015050378794356
 26.5200236420971187 25.5363620229562827 22.4733636201307014
 26.5200236420971187 25.5363620229562827 25.2452222023819672
 26.5200236420971187 25.5363620229562827 28.0170807846332330
 26.5200236420971187 25.5363620229562827 30.7889393668844988
 26.5200236420971187 25.5363620229562827 33.5607979491357682
 26.5200236420971187 25.5363620229562827 36.3326565313870304
 24.2370125242544816 27.1950666919780168 14.1577878733769023
 24.2370125242544816 27.1950666919780168 16.9296464556281663
 24.2370125242544816 27.1950666919780168 19.7015050378794356
 24.2370125242544816 27.1950666919780168 22.4733636201307014
 24.2370125242544816 27.1950666919780168 25.2452222023819672
 24.2370125242544816 27.1950666919780168 28.0170807846332330
 24.2370125242544816 27.1950666919780168 30.7889393668844988
 24.2370125242544816 27.1950666919780168 33.5607979491357682
 24.2370125242544816 27.1950666919780168 36.3326565313870304
 21.9540014064118409 28.8537713609997546 14.1577878733769023
 21.9540014064118409 28.8537713609997546 16.9296464556281663
 21.9540014064118409 28.8537713609997546 19.7015050378794356
 21.9540014064118409 28.8537713609997546 22.4733636201307014
 21.9540014064118409 28.8537713609997546 25.2452222023819672
 21.9540014064118409 28.8537713609997546 28.0170807846332330
 21.9540014064118409 28.8537713609997546 30.7889393668844988
 21.9540014064118409 28.8537713609997546 33.5607979491357682
 21.9540014064118409 28.8537713609997546 36.3326565313870304
 19.6709902885692003 27.1950666919780204 14.1577878733769023
 19.6709902885692003 27.1950666919780204 16.9296464556281663
 19.6709902885692003 27.1950666919780204 19.7015050378794356
 19.6709902885692003 27.1950666919780204 22.4733636201307014
 19.6709902885692003 27.1950666919780204 25.2452222023819672
 19.6709902885692003 27.1950666919780204 28.0170807846332330
 19.6709902885692003 27.1950666919780204 30.7889393668844988
 19.6709902885692003 27.1950666919780204 33.5607979491357682
 19.6709902885692003 27.1950666919780204 36.3326565313870304
 17.3879791707265632 25.5363620229562827 14.1577878733769023
 17.3879791707265632 25.5363620229562827 16.9296464556281663
 17.3879791707265632 25.5363620229562827 19.7015050378794356
 17.3879791707265632 25.5363620229562827 22.4733636201307014
 17.3879791707265632 25.5363620229562827 25.2452222023819672
 17.3879791707265632 25.5363620229562827 28.0170807846332330
 17.3879791707265632 25.5363620229562827 30.7889393668844988
 17.3879791707265632 25.5363620229562827 33.5607979491357682
 17.3879791707265632 25.5363620229562827 36.3326565313870304
 15.1049680528839225 23.8776573539345485 14.1577878733769023
 15.1049680528839225 23.8776573539345485 16.9296464556281663
 15.1049680528839225 23.8776573539345485 19.7015050378794356
 15.1049680528839225 23.8776573539345485 22.4733636201307014
 15.1049680528839225 23.8776573539345485 25.2452222023819672
 15.1049680528839225 23.8776573539345485 28.0170807846332330
 15.1049680528839225 23.8776573539345485 30.7889393668844988
 15.1049680528839225 23.8776573539345485 33.5607979491357682
 15.1049680528839225 23.8776573539345485 36.3326565313870304
 15.9770007032059205 21.1938168221592349 14.1577878733769023
 15.9770007032059205 21.1938168221592349 16.9296464556281663
 15.9770007032059205 21.1938168221592349 19.7015050378794356
 15.9770007032059205 21.1938168221592349 22.4733636201307014
 15.9770007032059205 21.1938168221592349 25.2452222023819672
 15.9770007032059205 21.1938168221592349 28.0170807846332330
 15.9770007032059205 21.1938168221592349 30.7889393668844988
 15.9770007032059205 21.1938168221592349 33.5607979491357682
 15.9770007032059205 21.1938168221592349 36.3326565313870304
 16.8490333535279149 18.5099762903839213 14.1577878733769023
 16.8490333535279149 18.5099762903839213 16.9296464556281663
 16.8490333535279149 18.5099762903839213 19.7015050378794356
 16.8490333535279149 18.5099762903839213 22.4733636201307014
 16.8490333535279149 18.5099762903839213 25.2452222023819672
 16.8490333535279149 18.5099762903839213 28.0170807846332330
 16.8490333535279149 18.5099762903839213 30.7889393668844988
 16.8490333535279149 18.5099762903839213 33.5607979491357682
 16.8490333535279149 18.5099762903839213 36.3326565313870304
 17.7210660038499128 15.8261357586086078 14.1577878733769023
 17.7210660038499128 15.8261357586086078 16.9296464556281663
 17.7210660038499128 15.8261357586086078 19.7015050378794356
 17.7210660038499128 15.8261357586086078 22.4733636201307014
 17.7210660038499128 15.8261357586086078 25.2452222023819672
 17.7210660038499128 15.8261357586086078 28.0170807846332330
 17.7210660038499128 15.8261357586086078 30.7889393668844988
 17.7210660038499128 15.8261357586086078 33.5607979491357682
 17.7210660038499128 15.8261357586086078 36.3326565313870304
 20.5430229388911982 15.8261357586086060 14.1577878733769023
 20.5430229388911982 15.8261357586086060 16.9296464556281663
 20.5430229388911982 15.8261357586086060 19.7015050378794356
 20.5430229388911982 15.8261357586086060 22.4733636201307014
 20.5430229388911982 15.8261357586086060 25.2452222023819672
 20.5430229388911982 15.8261357586086060 28.0170807846332330
 20.5430229388911982 15.8261357586086060 30.7889393668844988
 20.5430229388911982 15.8261357586086060 33.5607979491357682
 20.5430229388911982 15.8261357586086060 36.3326565313870304
 23.3649798739324837 15.8261357586086042 14.1577878733769023
 23.3649798739324837 15.8261357586086042 16.9296464556281663
 23.3649798739324837 15.8261357586086042 19.7015050378794356
 23.3649798739324837 15.8261357586086042 22.4733636201307014
 23.3649798739324837 15.8261357586086042 25.2452222023819672
 23.3649798739324837 15.8261357586086042 28.0170807846332330
 23.3649798739324837 15.8261357586086042 30.7889393668844988
 23.3649798739324837 15.8261357586086042 33.5607979491357682
 23.3649798739324837 15.8261357586086042 36.3326565313870304
 26.1869368089737691 15.8261357586086042 14.1577878733769023
 26.1869368089737691 15.8261357586086042 16.9296464556281663
 26.1869368089737691 15.8261357586086042 19.7015050378794356
 26.1869368089737691 15.8261357586086042 22.4733636201307014
 26.1869368089737691 15.8261357586086042 25.2452222023819672
 26.1869368089737691 15.8261357586086042 28.0170807846332330
 26.1869368089737691 15.8261357586086042 30.7889393668844988
 26.1869368089737691 15.8261357586086042 33.5607979491357682
 26.1869368089737691 15.8261357586086042 36.3326565313870304
 27.0589694592957635 18.5099762903839178 14.1577878733769023
 27.0589694592957635 18.5099762903839178 16.9296464556281663
 27.0589694592957635 18.5099762903839178 19.7015050378794356
 27.0589694592957635 18.5099762903839178 22.4733636201307014
 27.0589694592957635 18.5099762903839178 25.2452222023819672
 27.0589694592957635 18.5099762903839178 28.0170807846332330
 27.0589694592957635 18.5099762903839178 30.7889393668844988
 27.0589694592957635 18.5099762903839178 33.5607979491357682
 27.0589694592957635 18.5099762903839178 36.3326565313870304
 27.9310021096177614 21.1938168221592314 14.1577878733769023
 27.9310021096177614 21.1938168221592314 16.9296464556281663
 27.9310021096177614 21.1938168221592314 19.7015050378794356
 27.9310021096177614 21.1938168221592314 22.4733636201307014
 27.9310021096177614 21.1938168221592314 25.2452222023819672
 27.9310021096177614 21.1938168221592314 28.0170807846332330
 27.9310021096177614 21.1938168221592314 30.7889393668844988
 27.9310021096177614 21.1938168221592314 33.5607979491357682
 27.9310021096177614 21.1938168221592314 36.3326565313870304
 31.0860458777823965 24.6194526328403214 15.5437171645025352
 31.0860458777823965 24.6194526328403214 18.3155757467538010
 31.0860458777823965 24.6194526328403214 21.0874343290050668
 31.0860458777823965 24.6194526328403214 23.8592929112563326
 31.0860458777823965 24.6194526328403214 26.6311514935076019
 31.0860458777823965 24.6194526328403214 29.4030100757588642
 31.0860458777823965 24.6194526328403214 32.1748686580101335
 31.0860458777823965 24.6194526328403214 34.9467272402613958
 28.8030347599397594 26.2781573018620591 15.5437171645025352
 28.8030347599397594 26.2781573018620591 18.3155757467538010
 28.8030347599397594 26.2781573018620591 21.0874343290050668
 28.8030347599397594 26.2781573018620591 23.8592929112563326
 28.8030347599397594 26.2781573018620591 26.6311514935076019
 28.8030347599397594 26.2781573018620591 29.4030100757588642
 28.8030347599397594 26.2781573018620591 32.1748686580101335
 28.8030347599397594 26.2781573018620591 34.9467272402613958
 26.5200236420971187 27.9368619708837969 15.5437171645025352
 26.5200236420971187 27.9368619708837969 18.3155757467538010
 26.5200236420971187 27.9368619708837969 21.0874343290050668
 26.5200236420971187 27.9368619708837969 23.8592929112563326
 26.5200236420971187 27.9368619708837969 26.6311514935076019
 26.5200236420971187 27.9368619708837969 29.4030100757588642
 26.5200236420971187 27.9368619708837969 32.1748686580101335
 26.5200236420971187 27.9368619708837969 34.9467272402613958
 24.2370125242544816 29.5955666399055310 15.5437171645025352
 24.2370125242544816 29.5955666399055310 18.3155757467538010
 24.2370125242544816 29.5955666399055310 21.0874343290050668
 24.2370125242544816 29.5955666399055310 23.8592929112563326
 24.2370125242544816 29.5955666399055310 26.6311514935076019
 24.2370125242544816 29.5955666399055310 29.4030100757588642
 24.2370125242544816 29.5955666399055310 32.1748686580101335
 24.2370125242544816 29.5955666399055310 34.9467272402613958
 21.9540014064118409 31.2542713089272688 15.5437171645025352
 21.9540014064118409 31.2542713089272688 18.3155757467538010
 21.9540014064118409 31.2542713089272688 21.0874343290050668
 21.9540014064118409 31.2542713089272688 23.8592929112563326
 21.9540014064118409 31.2542713089272688 26.6311514935076019
 21.9540014064118409 31.2542713089272688 29.4030100757588642
 21.9540014064118409 31.2542713089272688 32.1748686580101335
 21.9540014064118409 31.2542713089272688 34.9467272402613958
 19.6709902885692003 29.5955666399055346 15.5437171645025352
 19.6709902885692003 29.5955666399055346 18.3155757467538010
 19.6709902885692003 29.5955666399055346 21.0874343290050668
 19.6709902885692003 29.5955666399055346 23.8592929112563326
 19.6709902885692003 29.5955666399055346 26.6311514935076019
 19.6709902885692003 29.5955666399055346 29.4030100757588642
 19.6709902885692003 29.5955666399055346 32.1748686580101335
 19.6709902885692003 29.5955666399055346 34.9467272402613958
 17.3879791707265632 27.9368619708837969 15.5437171645025352
 17.3879791707265632 27.9368619708837969 18.3155757467538010
 17.3879791707265632 27.9368619708837969 21.0874343290050668
 17.3879791707265632 27.9368619708837969 23.8592929112563326
 17.3879791707265632 27.9368619708837969 26.6311514935076019
 17.3879791707265632 27.9368619708837969 29.4030100757588642
 17.3879791707265632 27.9368619708837969 32.1748686580101335
 17.3879791707265632 27.9368619708837969 34.9467272402613958
 15.1049680528839225 26.2781573018620627 15.5437171645025352
 15.1049680528839225 26.2781573018620627 18.3155757467538010
 15.1049680528839225 26.2781573018620627 21.0874343290050668
 15.1049680528839225 26.2781573018620627 23.8592929112563326
 15.1049680528839225 26.2781573018620627 26.6311514935076019
 15.1049680528839225 26.2781573018620627 29.4030100757588642
 15.1049680528839225 26.2781573018620627 32.1748686580101335
 15.1049680528839225 26.2781573018620627 34.9467272402613958
 12.8219569350412836 24.6194526328403249 15.5437171645025352
 12.8219569350412836 24.6194526328403249 18.3155757467538010
 12.8219569350412836 24.6194526328403249 21.0874343290050668
 12.8219569350412836 24.6194526328403249 23.8592929112563326
 12.8219569350412836 24.6194526328403249 26.6311514935076019
 12.8219569350412836 24.6194526328403249 29.4030100757588642
 12.8219569350412836 24.6194526328403249 32.1748686580101335
 12.8219569350412836 24.6194526328403249 34.9467272402613958
 13.6939895853632798 21.9356121010650114 15.5437171645025352
 13.6939895853632798 21.9356121010650114 18.3155757467538010
 13.6939895853632798 21.9356121010650114 21.0874343290050668
 13.6939895853632798 21.9356121010650114 23.8592929112563326
 13.6939895853632798 21.9356121010650114 26.6311514935076019
 13.6939895853632798 21.9356121010650114 29.4030100757588642
 13.6939895853632798 21.9356121010650114 32.1748686580101335
 13.6939895853632798 21.9356121010650114 34.9467272402613958
 14.5660222356852760 19.2517715692896978 15.5437171645025352
 14.5660222356852760 19.2517715692896978 18.3155757467538010
 14.5660222356852760 19.2517715692896978 21.0874343290050668
 14.5660222356852760 19.2517715692896978 23.8592929112563326
 14.5660222356852760 19.2517715692896978 26.6311514935076019
 14.5660222356852760 19.2517715692896978 29.4030100757588642
 14.5660222356852760 19.2517715692896978 32.1748686580101335
 14.5660222356852760 19.2517715692896978 34.9467272402613958
 15.4380548860072722 16.5679310375143842 15.5437171645025352
 15.4380548860072722 16.5679310375143842 18.3155757467538010
 15.4380548860072722 16.5679310375143842 21.0874343290050668
 15.4380548860072722 16.5679310375143842 23.8592929112563326
 15.4380548860072722 16.5679310375143842 26.6311514935076019
 15.4380548860072722 16.5679310375143842 29.4030100757588642
 15.4380548860072722 16.5679310375143842 32.1748686580101335
 15.4380548860072722 16.5679310375143842 34.9467272402613958
 16.3100875363292701 13.8840905057390707 15.5437171645025352
 16.3100875363292701 13.8840905057390707 18.3155757467538010
 16.3100875363292701 13.8840905057390707 21.0874343290050668
 16.3100875363292701 13.8840905057390707 23.8592929112563326
 16.3100875363292701 13.8840905057390707 26.6311514935076019
 16.3100875363292701 13.8840905057390707 29.4030100757588642
 16.3100875363292701 13.8840905057390707 32.1748686580101335
 16.3100875363292701 13.8840905057390707 34.9467272402613958
 19.1320444713705555 13.8840905057390707 15.5437171645025352
 19.1320444713705555 13.8840905057390707 18.3155757467538010
 19.1320444713705555 13.8840905057390707 21.0874343290050668
 19.1320444713705555 13.8840905057390707 23.8592929112563326
 19.1320444713705555 13.8840905057390707 26.6311514935076019
 19.1320444713705555 13.8840905057390707 29.4030100757588642
 19.1320444713705555 13.8840905057390707 32.1748686580101335
 19.1320444713705555 13.8840905057390707 34.9467272402613958
 21.9540014064118409 13.8840905057390707 15.5437171645025352
 21.9540014064118409 13.8840905057390707 18.3155757467538010
 21.9540014064118409 13.8840905057390707 21.0874343290050668
 21.9540014064118409 13.8840905057390707 23.8592929112563326
 21.9540014064118409 13.8840905057390707 26.6311514935076019
 21.9540014064118409 13.8840905057390707 29.4030100757588642
 21.9540014064118409 13.8840905057390707 32.1748686580101335
 21.9540014064118409 13.8840905057390707 34.9467272402613958
 24.7759583414531264 13.8840905057390689 15.5437171645025352
 24.7759583414531264 13.8840905057390689 18.3155757467538010
 24.7759583414531264 13.8840905057390689 21.0874343290050668
 24.7759583414531264 13.8840905057390689 23.8592929112563326
 24.7759583414531264 13.8840905057390689 26.6311514935076019
 24.7759583414531264 13.8840905057390689 29.4030100757588642
 24.7759583414531264 13.8840905057390689 32.1748686580101335
 24.7759583414531264 13.8840905057390689 34.9467272402613958
 27.5979152764944082 13.8840905057390689 15.5437171645025352
 27.5979152764944082 13.8840905057390689 18.3155757467538010
 27.5979152764944082 13.8840905057390689 21.0874343290050668
 27.5979152764944082 13.8840905057390689 23.8592929112563326
 27.5979152764944082 13.8840905057390689 26.6311514935076019
 27.5979152764944082 13.8840905057390689 29.4030100757588642
 27.5979152764944082 13.8840905057390689 32.1748686580101335
 27.5979152764944082 13.8840905057390689 34.9467272402613958
 28.4699479268164062 16.5679310375143807 15.5437171645025352
 28.4699479268164062 16.5679310375143807 18.3155757467538010
 28.4699479268164062 16.5679310375143807 21.0874343290050668
 28.4699479268164062 16.5679310375143807 23.8592929112563326
 28.4699479268164062 16.5679310375143807 26.6311514935076019
 28.4699479268164062 16.5679310375143807 29.4030100757588642
 28.4699479268164062 16.5679310375143807 32.1748686580101335
 28.4699479268164062 16.5679310375143807 34.9467272402613958
 29.3419805771384041 19.2517715692896942 15.5437171645025352
 29.3419805771384041 19.2517715692896942 18.3155757467538010
 29.3419805771384041 19.2517715692896942 21.0874343290050668
 29.3419805771384041 19.2517715692896942 23.8592929112563326
 29.3419805771384041 19.2517715692896942 26.6311514935076019
 29.3419805771384041 19.2517715692896942 29.4030100757588642
 29.3419805771384041 19.2517715692896942 32.1748686580101335
 29.3419805771384041 19.2517715692896942 34.9467272402613958
 30.2140132274604021 21.9356121010650078 15.5437171645025352
 30.2140132274604021 21.9356121010650078 18.3155757467538010
 30.2140132274604021 21.9356121010650078 21.0874343290050668
 30.2140132274604021 21.9356121010650078 23.8592929112563326
 30.2140132274604021 21.9356121010650078 26.6311514935076019
 30.2140132274604021 21.9356121010650078 29.4030100757588642
 30.2140132274604021 21.9356121010650078 32.1748686580101335
 30.2140132274604021 21.9356121010650078 34.9467272402613958
 31.0860458777823965 27.0199525807678356 16.9296464556281663
 31.0860458777823965 27.0199525807678356 19.7015050378794356
 31.0860458777823965 27.0199525807678356 22.4733636201307014
 31.0860458777823965 27.0199525807678356 25.2452222023819672
 31.0860458777823965 27.0199525807678356 28.0170807846332330
 31.0860458777823965 27.0199525807678356 30.7889393668844988
 31.0860458777823965 27.0199525807678356 33.5607979491357682
 28.8030347599397594 28.6786572497895733 16.9296464556281663
 28.8030347599397594 28.6786572497895733 19.7015050378794356
 28.8030347599397594 28.6786572497895733 22.4733636201307014
 28.8030347599397594 28.6786572497895733 25.2452222023819672
 28.8030347599397594 28.6786572497895733 28.0170807846332330
 28.8030347599397594 28.6786572497895733 30.7889393668844988
 28.8030347599397594 28.6786572497895733 33.5607979491357682
 26.5200236420971187 30.3373619188113111 16.9296464556281663
 26.5200236420971187 30.3373619188113111 19.7015050378794356
 26.5200236420971187 30.3373619188113111 22.4733636201307014
 26.5200236420971187 30.3373619188113111 25.2452222023819672
 26.5200236420971187 30.3373619188113111 28.0170807846332330
 26.5200236420971187 30.3373619188113111 30.7889393668844988
 26.5200236420971187 30.3373619188113111 33.5607979491357682
 24.2370125242544816 31.9960665878330488 16.9296464556281663
 24.2370125242544816 31.9960665878330488 19.7015050378794356
 24.2370125242544816 31.9960665878330488 22.4733636201307014
 24.2370125242544816 31.9960665878330488 25.2452222023819672