Au 
 1.0000000000000000
    32.2400000000000020    0.0000000000000000    0.0000000000000000
     0.0000000000000000   32.2400000000000020    0.0000000000000000
     0.0000000000000000    0.0000000000000000   32.2400000000000020
 Au 
  44
Cartesian
 10.0000000000000018 16.1200000000000010 16.1200000000000010
 12.0400000000000027 14.0800000000000018 16.1200000000000010
 12.0400000000000027 16.1200000000000010 14.0800000000000018
 12.0400000000000027 16.1200000000000010 18.1600000000000037
 12.0400000000000027 18.1600000000000037 16.1200000000000010
 14.0800000000000018 12.0400000000000027 16.1200000000000010
 16.1200000000000010 10.0000000000000018 16.1200000000000010
 16.1200000000000010 12.0400000000000027 14.0800000000000018
 16.1200000000000010 12.0400000000000027 18.1600000000000037
 14.0800000000000018 16.1200000000000010 12.0400000000000027
 16.1200000000000010 14.0800000000000018 12.0400000000000027
 16.1200000000000010 16.1200000000000010 10.0000000000000018
 14.0800000000000018 14.0800000000000018 14.0800000000000018
 14.0800000000000018 16.1200000000000010 16.1200000000000010
 16.1200000000000010 14.0800000000000018 16.1200000000000010
 16.1200000000000010 16.1200000000000010 14.0800000000000018
 14.0800000000000018 14.0800000000000018 18.1600000000000037
 14.0800000000000018 16.1200000000000010 20.2000000000000028
 16.1200000000000010 14.0800000000000018 20.2000000000000028
 16.1200000000000010 16.1200000000000010 18.1600000000000037
 16.1200000000000010 16.1200000000000010 22.2400000000000020
 16.1200000000000010 18.1600000000000037 12.0400000000000027
 14.0800000000000018 18.1600000000000037 14.0800000000000018
 14.0800000000000018 20.2000000000000028 16.1200000000000010
 16.1200000000000010 18.1600000000000037 16.1200000000000010
 16.1200000000000010 20.2000000000000028 14.0800000000000018
 14.0800000000000018 18.1600000000000037 18.1600000000000037
 16.1200000000000010 18.1600000000000037 20.2000000000000028
 16.1200000000000010 20.2000000000000028 18.1600000000000037
 16.1200000000000010 22.2400000000000020 16.1200000000000010
 18.1600000000000037 12.0400000000000027 16.1200000000000010
 18.1600000000000037 16.1200000000000010 12.0400000000000027
 18.1600000000000037 14.0800000000000018 14.0800000000000018
 18.1600000000000037 16.1200000000000010 16.1200000000000010
 20.2000000000000028 14.0800000000000018 16.1200000000000010
 20.2000000000000028 16.1200000000000010 14.0800000000000018
 18.1600000000000037 14.0800000000000018 18.1600000000000037
 18.1600000000000037 16.1200000000000010 20.2000000000000028
 20.2000000000000028 16.1200000000000010 18.1600000000000037
 18.1600000000000037 18.1600000000000037 14.0800000000000018
 18.1600000000000037 20.2000000000000028 16.1200000000000010
 20.2000000000000028 18.1600000000000037 16.1200000000000010
 18.1600000000000037 18.1600000000000037 18.1600000000000037
 22.2400000000000020 16.1200000000000010 16.1200000000000010
