Pt 
 1.0000000000000000
    43.5199999999999960    0.0000000000000000    0.0000000000000000
     0.0000000000000000   43.5199999999999960    0.0000000000000000
     0.0000000000000000    0.0000000000000000   43.5199999999999960
 Pt 
 711
Cartesian
 11.9599999999999973 11.9599999999999973 21.7599999999999980
  9.9999999999999982 15.8799999999999990 19.7999999999999972
 11.9599999999999973 13.9199999999999982 19.7999999999999972
 11.9599999999999973 15.8799999999999990 17.8399999999999963
  9.9999999999999982 13.9199999999999982 21.7599999999999980
  9.9999999999999982 15.8799999999999990 23.7199999999999989
 11.9599999999999973 13.9199999999999982 23.7199999999999989
 11.9599999999999973 15.8799999999999990 21.7599999999999980
 11.9599999999999973 15.8799999999999990 25.6799999999999997
  9.9999999999999982 19.7999999999999972 15.8799999999999990
 11.9599999999999973 17.8399999999999963 15.8799999999999990
 11.9599999999999973 19.7999999999999972 13.9199999999999982
  9.9999999999999982 17.8399999999999963 17.8399999999999963
  9.9999999999999982 19.7999999999999972 19.7999999999999972
 11.9599999999999973 17.8399999999999963 19.7999999999999972
 11.9599999999999973 19.7999999999999972 17.8399999999999963
  9.9999999999999982 17.8399999999999963 21.7599999999999980
  9.9999999999999982 19.7999999999999972 23.7199999999999989
 11.9599999999999973 17.8399999999999963 23.7199999999999989
 11.9599999999999973 19.7999999999999972 21.7599999999999980
  9.9999999999999982 17.8399999999999963 25.6799999999999997
  9.9999999999999982 19.7999999999999972 27.6400000000000006
 11.9599999999999973 17.8399999999999963 27.6400000000000006
 11.9599999999999973 19.7999999999999972 25.6799999999999997
 11.9599999999999973 19.7999999999999972 29.6000000000000014
 11.9599999999999973 21.7599999999999980 11.9599999999999973
  9.9999999999999982 21.7599999999999980 13.9199999999999982
  9.9999999999999982 23.7199999999999989 15.8799999999999990
 11.9599999999999973 21.7599999999999980 15.8799999999999990
 11.9599999999999973 23.7199999999999989 13.9199999999999982
  9.9999999999999982 21.7599999999999980 17.8399999999999963
  9.9999999999999982 23.7199999999999989 19.7999999999999972
 11.9599999999999973 21.7599999999999980 19.7999999999999972
 11.9599999999999973 23.7199999999999989 17.8399999999999963
  9.9999999999999982 21.7599999999999980 21.7599999999999980
  9.9999999999999982 23.7199999999999989 23.7199999999999989
 11.9599999999999973 21.7599999999999980 23.7199999999999989
 11.9599999999999973 23.7199999999999989 21.7599999999999980
  9.9999999999999982 21.7599999999999980 25.6799999999999997
  9.9999999999999982 23.7199999999999989 27.6400000000000006
 11.9599999999999973 21.7599999999999980 27.6400000000000006
 11.9599999999999973 23.7199999999999989 25.6799999999999997
  9.9999999999999982 21.7599999999999980 29.6000000000000014
 11.9599999999999973 21.7599999999999980 31.5600000000000023
 11.9599999999999973 23.7199999999999989 29.6000000000000014
 11.9599999999999973 25.6799999999999997 15.8799999999999990
  9.9999999999999982 25.6799999999999997 17.8399999999999963
  9.9999999999999982 27.6400000000000006 19.7999999999999972
 11.9599999999999973 25.6799999999999997 19.7999999999999972
 11.9599999999999973 27.6400000000000006 17.8399999999999963
  9.9999999999999982 25.6799999999999997 21.7599999999999980
  9.9999999999999982 27.6400000000000006 23.7199999999999989
 11.9599999999999973 25.6799999999999997 23.7199999999999989
 11.9599999999999973 27.6400000000000006 21.7599999999999980
  9.9999999999999982 25.6799999999999997 25.6799999999999997
 11.9599999999999973 25.6799999999999997 27.6400000000000006
 11.9599999999999973 27.6400000000000006 25.6799999999999997
 11.9599999999999973 29.6000000000000014 19.7999999999999972
  9.9999999999999982 29.6000000000000014 21.7599999999999980
 11.9599999999999973 29.6000000000000014 23.7199999999999989
 11.9599999999999973 31.5600000000000023 21.7599999999999980
 13.9199999999999982 11.9599999999999973 19.7999999999999972
 15.8799999999999990  9.9999999999999982 19.7999999999999972
 15.8799999999999990 11.9599999999999973 17.8399999999999963
 13.9199999999999982  9.9999999999999982 21.7599999999999980
 13.9199999999999982 11.9599999999999973 23.7199999999999989
 15.8799999999999990  9.9999999999999982 23.7199999999999989
 15.8799999999999990 11.9599999999999973 21.7599999999999980
 15.8799999999999990 11.9599999999999973 25.6799999999999997
 13.9199999999999982 15.8799999999999990 15.8799999999999990
 15.8799999999999990 13.9199999999999982 15.8799999999999990
 15.8799999999999990 15.8799999999999990 13.9199999999999982
 13.9199999999999982 13.9199999999999982 17.8399999999999963
 13.9199999999999982 15.8799999999999990 19.7999999999999972
 15.8799999999999990 13.9199999999999982 19.7999999999999972
 15.8799999999999990 15.8799999999999990 17.8399999999999963
 13.9199999999999982 13.9199999999999982 21.7599999999999980
 13.9199999999999982 15.8799999999999990 23.7199999999999989
 15.8799999999999990 13.9199999999999982 23.7199999999999989
 15.8799999999999990 15.8799999999999990 21.7599999999999980
 13.9199999999999982 13.9199999999999982 25.6799999999999997
 13.9199999999999982 15.8799999999999990 27.6400000000000006
 15.8799999999999990 13.9199999999999982 27.6400000000000006
 15.8799999999999990 15.8799999999999990 25.6799999999999997
 15.8799999999999990 15.8799999999999990 29.6000000000000014
 13.9199999999999982 19.7999999999999972 11.9599999999999973
 15.8799999999999990 17.8399999999999963 11.9599999999999973
 15.8799999999999990 19.7999999999999972  9.9999999999999982
 13.9199999999999982 17.8399999999999963 13.9199999999999982
 13.9199999999999982 19.7999999999999972 15.8799999999999990
 15.8799999999999990 17.8399999999999963 15.8799999999999990
 15.8799999999999990 19.7999999999999972 13.9199999999999982
 13.9199999999999982 17.8399999999999963 17.8399999999999963
 13.9199999999999982 19.7999999999999972 19.7999999999999972
 15.8799999999999990 17.8399999999999963 19.7999999999999972
 15.8799999999999990 19.7999999999999972 17.8399999999999963
 13.9199999999999982 17.8399999999999963 21.7599999999999980
 13.9199999999999982 19.7999999999999972 23.7199999999999989
 15.8799999999999990 17.8399999999999963 23.7199999999999989
 15.8799999999999990 19.7999999999999972 21.7599999999999980
 13.9199999999999982 17.8399999999999963 25.6799999999999997
 13.9199999999999982 19.7999999999999972 27.6400000000000006
 15.8799999999999990 17.8399999999999963 27.6400000000000006
 15.8799999999999990 19.7999999999999972 25.6799999999999997
 13.9199999999999982 17.8399999999999963 29.6000000000000014
 13.9199999999999982 19.7999999999999972 31.5600000000000023
 15.8799999999999990 17.8399999999999963 31.5600000000000023
 15.8799999999999990 19.7999999999999972 29.6000000000000014
 15.8799999999999990 19.7999999999999972 33.5199999999999960
 13.9199999999999982 21.7599999999999980  9.9999999999999982
 13.9199999999999982 23.7199999999999989 11.9599999999999973
 15.8799999999999990 21.7599999999999980 11.9599999999999973
 15.8799999999999990 23.7199999999999989  9.9999999999999982
 13.9199999999999982 21.7599999999999980 13.9199999999999982
 13.9199999999999982 23.7199999999999989 15.8799999999999990
 15.8799999999999990 21.7599999999999980 15.8799999999999990
 15.8799999999999990 23.7199999999999989 13.9199999999999982
 13.9199999999999982 21.7599999999999980 17.8399999999999963
 13.9199999999999982 23.7199999999999989 19.7999999999999972
 15.8799999999999990 21.7599999999999980 19.7999999999999972
 15.8799999999999990 23.7199999999999989 17.8399999999999963
 13.9199999999999982 21.7599999999999980 21.7599999999999980
 13.9199999999999982 23.7199999999999989 23.7199999999999989
 15.8799999999999990 21.7599999999999980 23.7199999999999989
 15.8799999999999990 23.7199999999999989 21.7599999999999980
 13.9199999999999982 21.7599999999999980 25.6799999999999997
 13.9199999999999982 23.7199999999999989 27.6400000000000006
 15.8799999999999990 21.7599999999999980 27.6400000000000006
 15.8799999999999990 23.7199999999999989 25.6799999999999997
 13.9199999999999982 21.7599999999999980 29.6000000000000014
 13.9199999999999982 23.7199999999999989 31.5600000000000023
 15.8799999999999990 21.7599999999999980 31.5600000000000023
 15.8799999999999990 23.7199999999999989 29.6000000000000014
 13.9199999999999982 21.7599999999999980 33.5199999999999960
 15.8799999999999990 23.7199999999999989 33.5199999999999960
 15.8799999999999990 25.6799999999999997 11.9599999999999973
 13.9199999999999982 25.6799999999999997 13.9199999999999982
 13.9199999999999982 27.6400000000000006 15.8799999999999990
 15.8799999999999990 25.6799999999999997 15.8799999999999990
 15.8799999999999990 27.6400000000000006 13.9199999999999982
 13.9199999999999982 25.6799999999999997 17.8399999999999963
 13.9199999999999982 27.6400000000000006 19.7999999999999972
 15.8799999999999990 25.6799999999999997 19.7999999999999972
 15.8799999999999990 27.6400000000000006 17.8399999999999963
 13.9199999999999982 25.6799999999999997 21.7599999999999980
 13.9199999999999982 27.6400000000000006 23.7199999999999989
 15.8799999999999990 25.6799999999999997 23.7199999999999989
 15.8799999999999990 27.6400000000000006 21.7599999999999980
 13.9199999999999982 25.6799999999999997 25.6799999999999997
 13.9199999999999982 27.6400000000000006 27.6400000000000006
 15.8799999999999990 25.6799999999999997 27.6400000000000006
 15.8799999999999990 27.6400000000000006 25.6799999999999997
 13.9199999999999982 25.6799999999999997 29.6000000000000014
 15.8799999999999990 25.6799999999999997 31.5600000000000023
 15.8799999999999990 27.6400000000000006 29.6000000000000014
 15.8799999999999990 29.6000000000000014 15.8799999999999990
 13.9199999999999982 29.6000000000000014 17.8399999999999963
 13.9199999999999982 31.5600000000000023 19.7999999999999972
 15.8799999999999990 29.6000000000000014 19.7999999999999972
 15.8799999999999990 31.5600000000000023 17.8399999999999963
 13.9199999999999982 29.6000000000000014 21.7599999999999980
 13.9199999999999982 31.5600000000000023 23.7199999999999989
 15.8799999999999990 29.6000000000000014 23.7199999999999989
 15.8799999999999990 31.5600000000000023 21.7599999999999980
 13.9199999999999982 29.6000000000000014 25.6799999999999997
 15.8799999999999990 29.6000000000000014 27.6400000000000006
 15.8799999999999990 31.5600000000000023 25.6799999999999997
 15.8799999999999990 33.5199999999999960 19.7999999999999972
 13.9199999999999982 33.5199999999999960 21.7599999999999980
 15.8799999999999990 33.5199999999999960 23.7199999999999989
 17.8399999999999963 11.9599999999999973 15.8799999999999990
 19.7999999999999972  9.9999999999999982 15.8799999999999990
 19.7999999999999972 11.9599999999999973 13.9199999999999982
 17.8399999999999963  9.9999999999999982 17.8399999999999963
 17.8399999999999963 11.9599999999999973 19.7999999999999972
 19.7999999999999972  9.9999999999999982 19.7999999999999972
 19.7999999999999972 11.9599999999999973 17.8399999999999963
 17.8399999999999963  9.9999999999999982 21.7599999999999980
 17.8399999999999963 11.9599999999999973 23.7199999999999989
 19.7999999999999972  9.9999999999999982 23.7199999999999989
 19.7999999999999972 11.9599999999999973 21.7599999999999980
 17.8399999999999963  9.9999999999999982 25.6799999999999997
 17.8399999999999963 11.9599999999999973 27.6400000000000006
 19.7999999999999972  9.9999999999999982 27.6400000000000006
 19.7999999999999972 11.9599999999999973 25.6799999999999997
 19.7999999999999972 11.9599999999999973 29.6000000000000014
 17.8399999999999963 15.8799999999999990 11.9599999999999973
 19.7999999999999972 13.9199999999999982 11.9599999999999973
 19.7999999999999972 15.8799999999999990  9.9999999999999982
 17.8399999999999963 13.9199999999999982 13.9199999999999982
 17.8399999999999963 15.8799999999999990 15.8799999999999990
 19.7999999999999972 13.9199999999999982 15.8799999999999990
 19.7999999999999972 15.8799999999999990 13.9199999999999982
 17.8399999999999963 13.9199999999999982 17.8399999999999963
 17.8399999999999963 15.8799999999999990 19.7999999999999972
 19.7999999999999972 13.9199999999999982 19.7999999999999972
 19.7999999999999972 15.8799999999999990 17.8399999999999963
 17.8399999999999963 13.9199999999999982 21.7599999999999980
 17.8399999999999963 15.8799999999999990 23.7199999999999989
 19.7999999999999972 13.9199999999999982 23.7199999999999989
 19.7999999999999972 15.8799999999999990 21.7599999999999980
 17.8399999999999963 13.9199999999999982 25.6799999999999997
 17.8399999999999963 15.8799999999999990 27.6400000000000006
 19.7999999999999972 13.9199999999999982 27.6400000000000006
 19.7999999999999972 15.8799999999999990 25.6799999999999997
 17.8399999999999963 13.9199999999999982 29.6000000000000014
 17.8399999999999963 15.8799999999999990 31.5600000000000023
 19.7999999999999972 13.9199999999999982 31.5600000000000023
 19.7999999999999972 15.8799999999999990 29.6000000000000014
 19.7999999999999972 15.8799999999999990 33.5199999999999960
 17.8399999999999963 17.8399999999999963  9.9999999999999982
 17.8399999999999963 19.7999999999999972 11.9599999999999973
 19.7999999999999972 17.8399999999999963 11.9599999999999973
 19.7999999999999972 19.7999999999999972  9.9999999999999982
 17.8399999999999963 17.8399999999999963 13.9199999999999982
 17.8399999999999963 19.7999999999999972 15.8799999999999990
 19.7999999999999972 17.8399999999999963 15.8799999999999990
 19.7999999999999972 19.7999999999999972 13.9199999999999982
 17.8399999999999963 17.8399999999999963 17.8399999999999963
 17.8399999999999963 19.7999999999999972 19.7999999999999972
 19.7999999999999972 17.8399999999999963 19.7999999999999972
 19.7999999999999972 19.7999999999999972 17.8399999999999963
 17.8399999999999963 17.8399999999999963 21.7599999999999980
 17.8399999999999963 19.7999999999999972 23.7199999999999989
 19.7999999999999972 17.8399999999999963 23.7199999999999989
 19.7999999999999972 19.7999999999999972 21.7599999999999980
 17.8399999999999963 17.8399999999999963 25.6799999999999997
 17.8399999999999963 19.7999999999999972 27.6400000000000006
 19.7999999999999972 17.8399999999999963 27.6400000000000006
 19.7999999999999972 19.7999999999999972 25.6799999999999997
 17.8399999999999963 17.8399999999999963 29.6000000000000014
 17.8399999999999963 19.7999999999999972 31.5600000000000023
 19.7999999999999972 17.8399999999999963 31.5600000000000023
 19.7999999999999972 19.7999999999999972 29.6000000000000014
 17.8399999999999963 17.8399999999999963 33.5199999999999960
 19.7999999999999972 19.7999999999999972 33.5199999999999960
 17.8399999999999963 21.7599999999999980  9.9999999999999982
 17.8399999999999963 23.7199999999999989 11.9599999999999973
 19.7999999999999972 21.7599999999999980 11.9599999999999973
 19.7999999999999972 23.7199999999999989  9.9999999999999982
 17.8399999999999963 21.7599999999999980 13.9199999999999982
 17.8399999999999963 23.7199999999999989 15.8799999999999990
 19.7999999999999972 21.7599999999999980 15.8799999999999990
 19.7999999999999972 23.7199999999999989 13.9199999999999982
 17.8399999999999963 21.7599999999999980 17.8399999999999963
 17.8399999999999963 23.7199999999999989 19.7999999999999972
 19.7999999999999972 21.7599999999999980 19.7999999999999972
 19.7999999999999972 23.7199999999999989 17.8399999999999963
 17.8399999999999963 21.7599999999999980 21.7599999999999980
 17.8399999999999963 23.7199999999999989 23.7199999999999989
 19.7999999999999972 21.7599999999999980 23.7199999999999989
 19.7999999999999972 23.7199999999999989 21.7599999999999980
 17.8399999999999963 21.7599999999999980 25.6799999999999997
 17.8399999999999963 23.7199999999999989 27.6400000000000006
 19.7999999999999972 21.7599999999999980 27.6400000000000006
 19.7999999999999972 23.7199999999999989 25.6799999999999997
 17.8399999999999963 21.7599999999999980 29.6000000000000014
 17.8399999999999963 23.7199999999999989 31.5600000000000023
 19.7999999999999972 21.7599999999999980 31.5600000000000023
 19.7999999999999972 23.7199999999999989 29.6000000000000014
 17.8399999999999963 21.7599999999999980 33.5199999999999960
 19.7999999999999972 23.7199999999999989 33.5199999999999960
 17.8399999999999963 25.6799999999999997  9.9999999999999982
 17.8399999999999963 27.6400000000000006 11.9599999999999973
 19.7999999999999972 25.6799999999999997 11.9599999999999973
 19.7999999999999972 27.6400000000000006  9.9999999999999982
 17.8399999999999963 25.6799999999999997 13.9199999999999982
 17.8399999999999963 27.6400000000000006 15.8799999999999990
 19.7999999999999972 25.6799999999999997 15.8799999999999990
 19.7999999999999972 27.6400000000000006 13.9199999999999982
 17.8399999999999963 25.6799999999999997 17.8399999999999963
 17.8399999999999963 27.6400000000000006 19.7999999999999972
 19.7999999999999972 25.6799999999999997 19.7999999999999972
 19.7999999999999972 27.6400000000000006 17.8399999999999963
 17.8399999999999963 25.6799999999999997 21.7599999999999980
 17.8399999999999963 27.6400000000000006 23.7199999999999989
 19.7999999999999972 25.6799999999999997 23.7199999999999989
 19.7999999999999972 27.6400000000000006 21.7599999999999980
 17.8399999999999963 25.6799999999999997 25.6799999999999997
 17.8399999999999963 27.6400000000000006 27.6400000000000006
 19.7999999999999972 25.6799999999999997 27.6400000000000006
 19.7999999999999972 27.6400000000000006 25.6799999999999997
 17.8399999999999963 25.6799999999999997 29.6000000000000014
 17.8399999999999963 27.6400000000000006 31.5600000000000023
 19.7999999999999972 25.6799999999999997 31.5600000000000023
 19.7999999999999972 27.6400000000000006 29.6000000000000014
 17.8399999999999963 25.6799999999999997 33.5199999999999960
 19.7999999999999972 27.6400000000000006 33.5199999999999960
 19.7999999999999972 29.6000000000000014 11.9599999999999973
 17.8399999999999963 29.6000000000000014 13.9199999999999982
 17.8399999999999963 31.5600000000000023 15.8799999999999990
 19.7999999999999972 29.6000000000000014 15.8799999999999990
 19.7999999999999972 31.5600000000000023 13.9199999999999982
 17.8399999999999963 29.6000000000000014 17.8399999999999963
 17.8399999999999963 31.5600000000000023 19.7999999999999972
 19.7999999999999972 29.6000000000000014 19.7999999999999972
 19.7999999999999972 31.5600000000000023 17.8399999999999963
 17.8399999999999963 29.6000000000000014 21.7599999999999980
 17.8399999999999963 31.5600000000000023 23.7199999999999989
 19.7999999999999972 29.6000000000000014 23.7199999999999989
 19.7999999999999972 31.5600000000000023 21.7599999999999980
 17.8399999999999963 29.6000000000000014 25.6799999999999997
 17.8399999999999963 31.5600000000000023 27.6400000000000006
 19.7999999999999972 29.6000000000000014 27.6400000000000006
 19.7999999999999972 31.5600000000000023 25.6799999999999997
 17.8399999999999963 29.6000000000000014 29.6000000000000014
 19.7999999999999972 29.6000000000000014 31.5600000000000023
 19.7999999999999972 31.5600000000000023 29.6000000000000014
 19.7999999999999972 33.5199999999999960 15.8799999999999990
 17.8399999999999963 33.5199999999999960 17.8399999999999963
 19.7999999999999972 33.5199999999999960 19.7999999999999972
 17.8399999999999963 33.5199999999999960 21.7599999999999980
 19.7999999999999972 33.5199999999999960 23.7199999999999989
 17.8399999999999963 33.5199999999999960 25.6799999999999997
 19.7999999999999972 33.5199999999999960 27.6400000000000006
 21.7599999999999980 11.9599999999999973 11.9599999999999973
 21.7599999999999980  9.9999999999999982 13.9199999999999982
 21.7599999999999980 11.9599999999999973 15.8799999999999990
 23.7199999999999989  9.9999999999999982 15.8799999999999990
 23.7199999999999989 11.9599999999999973 13.9199999999999982
 21.7599999999999980  9.9999999999999982 17.8399999999999963
 21.7599999999999980 11.9599999999999973 19.7999999999999972
 23.7199999999999989  9.9999999999999982 19.7999999999999972
 23.7199999999999989 11.9599999999999973 17.8399999999999963
 21.7599999999999980  9.9999999999999982 21.7599999999999980
 21.7599999999999980 11.9599999999999973 23.7199999999999989
 23.7199999999999989  9.9999999999999982 23.7199999999999989
 23.7199999999999989 11.9599999999999973 21.7599999999999980
 21.7599999999999980  9.9999999999999982 25.6799999999999997
 21.7599999999999980 11.9599999999999973 27.6400000000000006
 23.7199999999999989  9.9999999999999982 27.6400000000000006
 23.7199999999999989 11.9599999999999973 25.6799999999999997
 21.7599999999999980  9.9999999999999982 29.6000000000000014
 21.7599999999999980 11.9599999999999973 31.5600000000000023
 23.7199999999999989 11.9599999999999973 29.6000000000000014
 21.7599999999999980 13.9199999999999982  9.9999999999999982
 21.7599999999999980 15.8799999999999990 11.9599999999999973
 23.7199999999999989 13.9199999999999982 11.9599999999999973
 23.7199999999999989 15.8799999999999990  9.9999999999999982
 21.7599999999999980 13.9199999999999982 13.9199999999999982
 21.7599999999999980 15.8799999999999990 15.8799999999999990
 23.7199999999999989 13.9199999999999982 15.8799999999999990
 23.7199999999999989 15.8799999999999990 13.9199999999999982
 21.7599999999999980 13.9199999999999982 17.8399999999999963
 21.7599999999999980 15.8799999999999990 19.7999999999999972
 23.7199999999999989 13.9199999999999982 19.7999999999999972
 23.7199999999999989 15.8799999999999990 17.8399999999999963
 21.7599999999999980 13.9199999999999982 21.7599999999999980
 21.7599999999999980 15.8799999999999990 23.7199999999999989
 23.7199999999999989 13.9199999999999982 23.7199999999999989
 23.7199999999999989 15.8799999999999990 21.7599999999999980
 21.7599999999999980 13.9199999999999982 25.6799999999999997
 21.7599999999999980 15.8799999999999990 27.6400000000000006
 23.7199999999999989 13.9199999999999982 27.6400000000000006
 23.7199999999999989 15.8799999999999990 25.6799999999999997
 21.7599999999999980 13.9199999999999982 29.6000000000000014
 21.7599999999999980 15.8799999999999990 31.5600000000000023
 23.7199999999999989 13.9199999999999982 31.5600000000000023
 23.7199999999999989 15.8799999999999990 29.6000000000000014
 21.7599999999999980 13.9199999999999982 33.5199999999999960
 23.7199999999999989 15.8799999999999990 33.5199999999999960
 21.7599999999999980 17.8399999999999963  9.9999999999999982
 21.7599999999999980 19.7999999999999972 11.9599999999999973
 23.7199999999999989 17.8399999999999963 11.9599999999999973
 23.7199999999999989 19.7999999999999972  9.9999999999999982
 21.7599999999999980 17.8399999999999963 13.9199999999999982
 21.7599999999999980 19.7999999999999972 15.8799999999999990
 23.7199999999999989 17.8399999999999963 15.8799999999999990
 23.7199999999999989 19.7999999999999972 13.9199999999999982
 21.7599999999999980 17.8399999999999963 17.8399999999999963
 21.7599999999999980 19.7999999999999972 19.7999999999999972
 23.7199999999999989 17.8399999999999963 19.7999999999999972
 23.7199999999999989 19.7999999999999972 17.8399999999999963
 21.7599999999999980 17.8399999999999963 21.7599999999999980
 21.7599999999999980 19.7999999999999972 23.7199999999999989
 23.7199999999999989 17.8399999999999963 23.7199999999999989
 23.7199999999999989 19.7999999999999972 21.7599999999999980
 21.7599999999999980 17.8399999999999963 25.6799999999999997
 21.7599999999999980 19.7999999999999972 27.6400000000000006
 23.7199999999999989 17.8399999999999963 27.6400000000000006
 23.7199999999999989 19.7999999999999972 25.6799999999999997
 21.7599999999999980 17.8399999999999963 29.6000000000000014
 21.7599999999999980 19.7999999999999972 31.5600000000000023
 23.7199999999999989 17.8399999999999963 31.5600000000000023
 23.7199999999999989 19.7999999999999972 29.6000000000000014
 21.7599999999999980 17.8399999999999963 33.5199999999999960
 23.7199999999999989 19.7999999999999972 33.5199999999999960
 21.7599999999999980 21.7599999999999980  9.9999999999999982
 21.7599999999999980 23.7199999999999989 11.9599999999999973
 23.7199999999999989 21.7599999999999980 11.9599999999999973
 23.7199999999999989 23.7199999999999989  9.9999999999999982
 21.7599999999999980 21.7599999999999980 13.9199999999999982
 21.7599999999999980 23.7199999999999989 15.8799999999999990
 23.7199999999999989 21.7599999999999980 15.8799999999999990
 23.7199999999999989 23.7199999999999989 13.9199999999999982
 21.7599999999999980 21.7599999999999980 17.8399999999999963
 21.7599999999999980 23.7199999999999989 19.7999999999999972
 23.7199999999999989 21.7599999999999980 19.7999999999999972
 23.7199999999999989 23.7199999999999989 17.8399999999999963
 21.7599999999999980 21.7599999999999980 21.7599999999999980
 21.7599999999999980 23.7199999999999989 23.7199999999999989
 23.7199999999999989 21.7599999999999980 23.7199999999999989
 23.7199999999999989 23.7199999999999989 21.7599999999999980
 21.7599999999999980 21.7599999999999980 25.6799999999999997
 21.7599999999999980 23.7199999999999989 27.6400000000000006
 23.7199999999999989 21.7599999999999980 27.6400000000000006
 23.7199999999999989 23.7199999999999989 25.6799999999999997
 21.7599999999999980 21.7599999999999980 29.6000000000000014
 21.7599999999999980 23.7199999999999989 31.5600000000000023
 23.7199999999999989 21.7599999999999980 31.5600000000000023
 23.7199999999999989 23.7199999999999989 29.6000000000000014
 21.7599999999999980 21.7599999999999980 33.5199999999999960
 23.7199999999999989 23.7199999999999989 33.5199999999999960
 21.7599999999999980 25.6799999999999997  9.9999999999999982
 21.7599999999999980 27.6400000000000006 11.9599999999999973
 23.7199999999999989 25.6799999999999997 11.9599999999999973
 23.7199999999999989 27.6400000000000006  9.9999999999999982
 21.7599999999999980 25.6799999999999997 13.9199999999999982
 21.7599999999999980 27.6400000000000006 15.8799999999999990
 23.7199999999999989 25.6799999999999997 15.8799999999999990
 23.7199999999999989 27.6400000000000006 13.9199999999999982
 21.7599999999999980 25.6799999999999997 17.8399999999999963
 21.7599999999999980 27.6400000000000006 19.7999999999999972
 23.7199999999999989 25.6799999999999997 19.7999999999999972
 23.7199999999999989 27.6400000000000006 17.8399999999999963
 21.7599999999999980 25.6799999999999997 21.7599999999999980
 21.7599999999999980 27.6400000000000006 23.7199999999999989
 23.7199999999999989 25.6799999999999997 23.7199999999999989
 23.7199999999999989 27.6400000000000006 21.7599999999999980
 21.7599999999999980 25.6799999999999997 25.6799999999999997
 21.7599999999999980 27.6400000000000006 27.6400000000000006
 23.7199999999999989 25.6799999999999997 27.6400000000000006
 23.7199999999999989 27.6400000000000006 25.6799999999999997
 21.7599999999999980 25.6799999999999997 29.6000000000000014
 21.7599999999999980 27.6400000000000006 31.5600000000000023
 23.7199999999999989 25.6799999999999997 31.5600000000000023
 23.7199999999999989 27.6400000000000006 29.6000000000000014
 21.7599999999999980 25.6799999999999997 33.5199999999999960
 23.7199999999999989 27.6400000000000006 33.5199999999999960
 21.7599999999999980 29.6000000000000014  9.9999999999999982
 21.7599999999999980 31.5600000000000023 11.9599999999999973
 23.7199999999999989 29.6000000000000014 11.9599999999999973
 21.7599999999999980 29.6000000000000014 13.9199999999999982
 21.7599999999999980 31.5600000000000023 15.8799999999999990
 23.7199999999999989 29.6000000000000014 15.8799999999999990
 23.7199999999999989 31.5600000000000023 13.9199999999999982
 21.7599999999999980 29.6000000000000014 17.8399999999999963
 21.7599999999999980 31.5600000000000023 19.7999999999999972
 23.7199999999999989 29.6000000000000014 19.7999999999999972
 23.7199999999999989 31.5600000000000023 17.8399999999999963
 21.7599999999999980 29.6000000000000014 21.7599999999999980
 21.7599999999999980 31.5600000000000023 23.7199999999999989
 23.7199999999999989 29.6000000000000014 23.7199999999999989
 23.7199999999999989 31.5600000000000023 21.7599999999999980
 21.7599999999999980 29.6000000000000014 25.6799999999999997
 21.7599999999999980 31.5600000000000023 27.6400000000000006
 23.7199999999999989 29.6000000000000014 27.6400000000000006
 23.7199999999999989 31.5600000000000023 25.6799999999999997
 21.7599999999999980 29.6000000000000014 29.6000000000000014
 21.7599999999999980 31.5600000000000023 31.5600000000000023
 23.7199999999999989 29.6000000000000014 31.5600000000000023
 23.7199999999999989 31.5600000000000023 29.6000000000000014
 21.7599999999999980 29.6000000000000014 33.5199999999999960
 21.7599999999999980 33.5199999999999960 13.9199999999999982
 23.7199999999999989 33.5199999999999960 15.8799999999999990
 21.7599999999999980 33.5199999999999960 17.8399999999999963
 23.7199999999999989 33.5199999999999960 19.7999999999999972
 21.7599999999999980 33.5199999999999960 21.7599999999999980
 23.7199999999999989 33.5199999999999960 23.7199999999999989
 21.7599999999999980 33.5199999999999960 25.6799999999999997
 23.7199999999999989 33.5199999999999960 27.6400000000000006
 21.7599999999999980 33.5199999999999960 29.6000000000000014
 25.6799999999999997 11.9599999999999973 15.8799999999999990
 25.6799999999999997  9.9999999999999982 17.8399999999999963
 25.6799999999999997 11.9599999999999973 19.7999999999999972
 27.6400000000000006  9.9999999999999982 19.7999999999999972
 27.6400000000000006 11.9599999999999973 17.8399999999999963
 25.6799999999999997  9.9999999999999982 21.7599999999999980
 25.6799999999999997 11.9599999999999973 23.7199999999999989
 27.6400000000000006  9.9999999999999982 23.7199999999999989
 27.6400000000000006 11.9599999999999973 21.7599999999999980
 25.6799999999999997  9.9999999999999982 25.6799999999999997
 25.6799999999999997 11.9599999999999973 27.6400000000000006
 27.6400000000000006 11.9599999999999973 25.6799999999999997
 25.6799999999999997 15.8799999999999990 11.9599999999999973
 25.6799999999999997 13.9199999999999982 13.9199999999999982
 25.6799999999999997 15.8799999999999990 15.8799999999999990