Au 
 1.0000000000000000
    52.5733690032869987    0.0000000000000000    0.0000000000000000
     0.0000000000000000   50.9791148482626681    0.0000000000000000
     0.0000000000000000    0.0000000000000000   45.9649610051700250
 Au 
 675
Cartesian
 26.2866845016435029 26.1704992483830701 10.0000000000000000
 26.2866845016435029 26.1704992483830701 12.8849956672411139
 26.2866845016435029 26.1704992483830701 15.7699913344822278
 26.2866845016435029 26.1704992483830701 18.6549870017233417
 26.2866845016435029 26.1704992483830701 21.5399826689644556
 26.2866845016435029 26.1704992483830701 24.4249783362055695
 26.2866845016435029 26.1704992483830701 27.3099740034466834
 26.2866845016435029 26.1704992483830701 30.1949696706877972
 26.2866845016435029 26.1704992483830701 33.0799653379289111
 26.2866845016435029 26.1704992483830701 35.9649610051700250
 28.6628797467450269 26.9425718856115317 11.4424978336205569
 28.6628797467450269 26.9425718856115317 14.3274935008616708
 28.6628797467450269 26.9425718856115317 17.2124891681027847
 28.6628797467450269 26.9425718856115317 20.0974848353438986
 28.6628797467450269 26.9425718856115317 22.9824805025850125
 28.6628797467450269 26.9425718856115317 25.8674761698261264
 28.6628797467450269 26.9425718856115317 28.7524718370672403
 28.6628797467450269 26.9425718856115317 31.6374675043083542
 28.6628797467450269 26.9425718856115317 34.5224631715494681
 26.2866845016435029 28.6689787860219099 11.4424978336205569
 26.2866845016435029 28.6689787860219099 14.3274935008616708
 26.2866845016435029 28.6689787860219099 17.2124891681027847
 26.2866845016435029 28.6689787860219099 20.0974848353438986
 26.2866845016435029 28.6689787860219099 22.9824805025850125
 26.2866845016435029 28.6689787860219099 25.8674761698261264
 26.2866845016435029 28.6689787860219099 28.7524718370672403
 26.2866845016435029 28.6689787860219099 31.6374675043083542
 26.2866845016435029 28.6689787860219099 34.5224631715494681
 23.9104892565419789 26.9425718856115317 11.4424978336205569
 23.9104892565419789 26.9425718856115317 14.3274935008616708
 23.9104892565419789 26.9425718856115317 17.2124891681027847
 23.9104892565419789 26.9425718856115317 20.0974848353438986
 23.9104892565419789 26.9425718856115317 22.9824805025850125
 23.9104892565419789 26.9425718856115317 25.8674761698261264
 23.9104892565419789 26.9425718856115317 28.7524718370672403
 23.9104892565419789 26.9425718856115317 31.6374675043083542
 23.9104892565419789 26.9425718856115317 34.5224631715494681
 24.8181150762648741 24.1491868423351868 11.4424978336205569
 24.8181150762648741 24.1491868423351868 14.3274935008616708
 24.8181150762648741 24.1491868423351868 17.2124891681027847
 24.8181150762648741 24.1491868423351868 20.0974848353438986
 24.8181150762648741 24.1491868423351868 22.9824805025850125
 24.8181150762648741 24.1491868423351868 25.8674761698261264
 24.8181150762648741 24.1491868423351868 28.7524718370672403
 24.8181150762648741 24.1491868423351868 31.6374675043083542
 24.8181150762648741 24.1491868423351868 34.5224631715494681
 27.7552539270221317 24.1491868423351868 11.4424978336205569
 27.7552539270221317 24.1491868423351868 14.3274935008616708
 27.7552539270221317 24.1491868423351868 17.2124891681027847
 27.7552539270221317 24.1491868423351868 20.0974848353438986
 27.7552539270221317 24.1491868423351868 22.9824805025850125
 27.7552539270221317 24.1491868423351868 25.8674761698261264
 27.7552539270221317 24.1491868423351868 28.7524718370672403
 27.7552539270221317 24.1491868423351868 31.6374675043083542
 27.7552539270221317 24.1491868423351868 34.5224631715494681
 31.0390749918465474 27.7146445228399969 12.8849956672411139
 31.0390749918465474 27.7146445228399969 15.7699913344822278
 31.0390749918465474 27.7146445228399969 18.6549870017233417
 31.0390749918465474 27.7146445228399969 21.5399826689644556
 31.0390749918465474 27.7146445228399969 24.4249783362055695
 31.0390749918465474 27.7146445228399969 27.3099740034466834
 31.0390749918465474 27.7146445228399969 30.1949696706877972
 31.0390749918465474 27.7146445228399969 33.0799653379289111
 28.6628797467450269 29.4410514232503751 12.8849956672411139
 28.6628797467450269 29.4410514232503751 15.7699913344822278
 28.6628797467450269 29.4410514232503751 18.6549870017233417
 28.6628797467450269 29.4410514232503751 21.5399826689644556
 28.6628797467450269 29.4410514232503751 24.4249783362055695
 28.6628797467450269 29.4410514232503751 27.3099740034466834
 28.6628797467450269 29.4410514232503751 30.1949696706877972
 28.6628797467450269 29.4410514232503751 33.0799653379289111
 26.2866845016435029 31.1674583236607532 12.8849956672411139
 26.2866845016435029 31.1674583236607532 15.7699913344822278
 26.2866845016435029 31.1674583236607532 18.6549870017233417
 26.2866845016435029 31.1674583236607532 21.5399826689644556
 26.2866845016435029 31.1674583236607532 24.4249783362055695
 26.2866845016435029 31.1674583236607532 27.3099740034466834
 26.2866845016435029 31.1674583236607532 30.1949696706877972
 26.2866845016435029 31.1674583236607532 33.0799653379289111
 23.9104892565419789 29.4410514232503751 12.8849956672411139
 23.9104892565419789 29.4410514232503751 15.7699913344822278
 23.9104892565419789 29.4410514232503751 18.6549870017233417
 23.9104892565419789 29.4410514232503751 21.5399826689644556
 23.9104892565419789 29.4410514232503751 24.4249783362055695
 23.9104892565419789 29.4410514232503751 27.3099740034466834
 23.9104892565419789 29.4410514232503751 30.1949696706877972
 23.9104892565419789 29.4410514232503751 33.0799653379289111
 21.5342940114404584 27.7146445228399969 12.8849956672411139
 21.5342940114404584 27.7146445228399969 15.7699913344822278
 21.5342940114404584 27.7146445228399969 18.6549870017233417
 21.5342940114404584 27.7146445228399969 21.5399826689644556
 21.5342940114404584 27.7146445228399969 24.4249783362055695
 21.5342940114404584 27.7146445228399969 27.3099740034466834
 21.5342940114404584 27.7146445228399969 30.1949696706877972
 21.5342940114404584 27.7146445228399969 33.0799653379289111
 22.4419198311633536 24.9212594795636484 12.8849956672411139
 22.4419198311633536 24.9212594795636484 15.7699913344822278
 22.4419198311633536 24.9212594795636484 18.6549870017233417
 22.4419198311633536 24.9212594795636484 21.5399826689644556
 22.4419198311633536 24.9212594795636484 24.4249783362055695
 22.4419198311633536 24.9212594795636484 27.3099740034466834
 22.4419198311633536 24.9212594795636484 30.1949696706877972
 22.4419198311633536 24.9212594795636484 33.0799653379289111
 23.3495456508862453 22.1278744362873034 12.8849956672411139
 23.3495456508862453 22.1278744362873034 15.7699913344822278
 23.3495456508862453 22.1278744362873034 18.6549870017233417
 23.3495456508862453 22.1278744362873034 21.5399826689644556
 23.3495456508862453 22.1278744362873034 24.4249783362055695
 23.3495456508862453 22.1278744362873034 27.3099740034466834
 23.3495456508862453 22.1278744362873034 30.1949696706877972
 23.3495456508862453 22.1278744362873034 33.0799653379289111
 26.2866845016435029 22.1278744362872999 12.8849956672411139
 26.2866845016435029 22.1278744362872999 15.7699913344822278
 26.2866845016435029 22.1278744362872999 18.6549870017233417
 26.2866845016435029 22.1278744362872999 21.5399826689644556
 26.2866845016435029 22.1278744362872999 24.4249783362055695
 26.2866845016435029 22.1278744362872999 27.3099740034466834
 26.2866845016435029 22.1278744362872999 30.1949696706877972
 26.2866845016435029 22.1278744362872999 33.0799653379289111
 29.2238233524007569 22.1278744362872999 12.8849956672411139
 29.2238233524007569 22.1278744362872999 15.7699913344822278
 29.2238233524007569 22.1278744362872999 18.6549870017233417
 29.2238233524007569 22.1278744362872999 21.5399826689644556
 29.2238233524007569 22.1278744362872999 24.4249783362055695
 29.2238233524007569 22.1278744362872999 27.3099740034466834
 29.2238233524007569 22.1278744362872999 30.1949696706877972
 29.2238233524007569 22.1278744362872999 33.0799653379289111
 30.1314491721236521 24.9212594795636484 12.8849956672411139
 30.1314491721236521 24.9212594795636484 15.7699913344822278
 30.1314491721236521 24.9212594795636484 18.6549870017233417
 30.1314491721236521 24.9212594795636484 21.5399826689644556
 30.1314491721236521 24.9212594795636484 24.4249783362055695
 30.1314491721236521 24.9212594795636484 27.3099740034466834
 30.1314491721236521 24.9212594795636484 30.1949696706877972
 30.1314491721236521 24.9212594795636484 33.0799653379289111
 33.4152702369480750 28.4867171600684586 14.3274935008616708
 33.4152702369480750 28.4867171600684586 17.2124891681027847
 33.4152702369480750 28.4867171600684586 20.0974848353438986
 33.4152702369480750 28.4867171600684586 22.9824805025850125
 33.4152702369480750 28.4867171600684586 25.8674761698261264
 33.4152702369480750 28.4867171600684586 28.7524718370672403
 33.4152702369480750 28.4867171600684586 31.6374675043083542
 31.0390749918465474 30.2131240604788367 14.3274935008616708
 31.0390749918465474 30.2131240604788367 17.2124891681027847
 31.0390749918465474 30.2131240604788367 20.0974848353438986
 31.0390749918465474 30.2131240604788367 22.9824805025850125
 31.0390749918465474 30.2131240604788367 25.8674761698261264
 31.0390749918465474 30.2131240604788367 28.7524718370672403
 31.0390749918465474 30.2131240604788367 31.6374675043083542
 28.6628797467450269 31.9395309608892148 14.3274935008616708
 28.6628797467450269 31.9395309608892148 17.2124891681027847
 28.6628797467450269 31.9395309608892148 20.0974848353438986
 28.6628797467450269 31.9395309608892148 22.9824805025850125
 28.6628797467450269 31.9395309608892148 25.8674761698261264
 28.6628797467450269 31.9395309608892148 28.7524718370672403
 28.6628797467450269 31.9395309608892148 31.6374675043083542
 26.2866845016435029 33.6659378612995965 14.3274935008616708
 26.2866845016435029 33.6659378612995965 17.2124891681027847
 26.2866845016435029 33.6659378612995965 20.0974848353438986
 26.2866845016435029 33.6659378612995965 22.9824805025850125
 26.2866845016435029 33.6659378612995965 25.8674761698261264
 26.2866845016435029 33.6659378612995965 28.7524718370672403
 26.2866845016435029 33.6659378612995965 31.6374675043083542
 23.9104892565419789 31.9395309608892148 14.3274935008616708
 23.9104892565419789 31.9395309608892148 17.2124891681027847
 23.9104892565419789 31.9395309608892148 20.0974848353438986
 23.9104892565419789 31.9395309608892148 22.9824805025850125
 23.9104892565419789 31.9395309608892148 25.8674761698261264
 23.9104892565419789 31.9395309608892148 28.7524718370672403
 23.9104892565419789 31.9395309608892148 31.6374675043083542
 21.5342940114404584 30.2131240604788402 14.3274935008616708
 21.5342940114404584 30.2131240604788402 17.2124891681027847
 21.5342940114404584 30.2131240604788402 20.0974848353438986
 21.5342940114404584 30.2131240604788402 22.9824805025850125
 21.5342940114404584 30.2131240604788402 25.8674761698261264
 21.5342940114404584 30.2131240604788402 28.7524718370672403
 21.5342940114404584 30.2131240604788402 31.6374675043083542
 19.1580987663389344 28.4867171600684586 14.3274935008616708
 19.1580987663389344 28.4867171600684586 17.2124891681027847
 19.1580987663389344 28.4867171600684586 20.0974848353438986
 19.1580987663389344 28.4867171600684586 22.9824805025850125
 19.1580987663389344 28.4867171600684586 25.8674761698261264
 19.1580987663389344 28.4867171600684586 28.7524718370672403
 19.1580987663389344 28.4867171600684586 31.6374675043083542
 20.0657245860618296 25.6933321167921136 14.3274935008616708
 20.0657245860618296 25.6933321167921136 17.2124891681027847
 20.0657245860618296 25.6933321167921136 20.0974848353438986
 20.0657245860618296 25.6933321167921136 22.9824805025850125
 20.0657245860618296 25.6933321167921136 25.8674761698261264
 20.0657245860618296 25.6933321167921136 28.7524718370672403
 20.0657245860618296 25.6933321167921136 31.6374675043083542
 20.9733504057847213 22.8999470735157651 14.3274935008616708
 20.9733504057847213 22.8999470735157651 17.2124891681027847
 20.9733504057847213 22.8999470735157651 20.0974848353438986
 20.9733504057847213 22.8999470735157651 22.9824805025850125
 20.9733504057847213 22.8999470735157651 25.8674761698261264
 20.9733504057847213 22.8999470735157651 28.7524718370672403
 20.9733504057847213 22.8999470735157651 31.6374675043083542
 21.8809762255076166 20.1065620302394166 14.3274935008616708
 21.8809762255076166 20.1065620302394166 17.2124891681027847
 21.8809762255076166 20.1065620302394166 20.0974848353438986
 21.8809762255076166 20.1065620302394166 22.9824805025850125
 21.8809762255076166 20.1065620302394166 25.8674761698261264
 21.8809762255076166 20.1065620302394166 28.7524718370672403
 21.8809762255076166 20.1065620302394166 31.6374675043083542
 24.8181150762648741 20.1065620302394166 14.3274935008616708
 24.8181150762648741 20.1065620302394166 17.2124891681027847
 24.8181150762648741 20.1065620302394166 20.0974848353438986
 24.8181150762648741 20.1065620302394166 22.9824805025850125
 24.8181150762648741 20.1065620302394166 25.8674761698261264
 24.8181150762648741 20.1065620302394166 28.7524718370672403
 24.8181150762648741 20.1065620302394166 31.6374675043083542
 27.7552539270221317 20.1065620302394166 14.3274935008616708
 27.7552539270221317 20.1065620302394166 17.2124891681027847
 27.7552539270221317 20.1065620302394166 20.0974848353438986
 27.7552539270221317 20.1065620302394166 22.9824805025850125
 27.7552539270221317 20.1065620302394166 25.8674761698261264
 27.7552539270221317 20.1065620302394166 28.7524718370672403
 27.7552539270221317 20.1065620302394166 31.6374675043083542
 30.6923927777793857 20.1065620302394166 14.3274935008616708
 30.6923927777793857 20.1065620302394166 17.2124891681027847
 30.6923927777793857 20.1065620302394166 20.0974848353438986
 30.6923927777793857 20.1065620302394166 22.9824805025850125
 30.6923927777793857 20.1065620302394166 25.8674761698261264
 30.6923927777793857 20.1065620302394166 28.7524718370672403
 30.6923927777793857 20.1065620302394166 31.6374675043083542
 31.6000185975022809 22.8999470735157651 14.3274935008616708
 31.6000185975022809 22.8999470735157651 17.2124891681027847
 31.6000185975022809 22.8999470735157651 20.0974848353438986
 31.6000185975022809 22.8999470735157651 22.9824805025850125
 31.6000185975022809 22.8999470735157651 25.8674761698261264
 31.6000185975022809 22.8999470735157651 28.7524718370672403
 31.6000185975022809 22.8999470735157651 31.6374675043083542
 32.5076444172251797 25.6933321167921100 14.3274935008616708
 32.5076444172251797 25.6933321167921100 17.2124891681027847
 32.5076444172251797 25.6933321167921100 20.0974848353438986
 32.5076444172251797 25.6933321167921100 22.9824805025850125
 32.5076444172251797 25.6933321167921100 25.8674761698261264
 32.5076444172251797 25.6933321167921100 28.7524718370672403
 32.5076444172251797 25.6933321167921100 31.6374675043083542
 35.7914654820495954 29.2587897972969202 15.7699913344822278
 35.7914654820495954 29.2587897972969202 18.6549870017233417
 35.7914654820495954 29.2587897972969202 21.5399826689644556
 35.7914654820495954 29.2587897972969202 24.4249783362055695
 35.7914654820495954 29.2587897972969202 27.3099740034466834
 35.7914654820495954 29.2587897972969202 30.1949696706877972
 33.4152702369480750 30.9851966977072983 15.7699913344822278
 33.4152702369480750 30.9851966977072983 18.6549870017233417
 33.4152702369480750 30.9851966977072983 21.5399826689644556
 33.4152702369480750 30.9851966977072983 24.4249783362055695
 33.4152702369480750 30.9851966977072983 27.3099740034466834
 33.4152702369480750 30.9851966977072983 30.1949696706877972
 31.0390749918465474 32.7116035981176765 15.7699913344822278
 31.0390749918465474 32.7116035981176765 18.6549870017233417
 31.0390749918465474 32.7116035981176765 21.5399826689644556
 31.0390749918465474 32.7116035981176765 24.4249783362055695
 31.0390749918465474 32.7116035981176765 27.3099740034466834
 31.0390749918465474 32.7116035981176765 30.1949696706877972
 28.6628797467450269 34.4380104985280582 15.7699913344822278
 28.6628797467450269 34.4380104985280582 18.6549870017233417
 28.6628797467450269 34.4380104985280582 21.5399826689644556
 28.6628797467450269 34.4380104985280582 24.4249783362055695
 28.6628797467450269 34.4380104985280582 27.3099740034466834
 28.6628797467450269 34.4380104985280582 30.1949696706877972
 26.2866845016435029 36.1644173989384399 15.7699913344822278
 26.2866845016435029 36.1644173989384399 18.6549870017233417
 26.2866845016435029 36.1644173989384399 21.5399826689644556
 26.2866845016435029 36.1644173989384399 24.4249783362055695
 26.2866845016435029 36.1644173989384399 27.3099740034466834
 26.2866845016435029 36.1644173989384399 30.1949696706877972
 23.9104892565419789 34.4380104985280582 15.7699913344822278
 23.9104892565419789 34.4380104985280582 18.6549870017233417
 23.9104892565419789 34.4380104985280582 21.5399826689644556
 23.9104892565419789 34.4380104985280582 24.4249783362055695
 23.9104892565419789 34.4380104985280582 27.3099740034466834
 23.9104892565419789 34.4380104985280582 30.1949696706877972
 21.5342940114404584 32.7116035981176765 15.7699913344822278
 21.5342940114404584 32.7116035981176765 18.6549870017233417
 21.5342940114404584 32.7116035981176765 21.5399826689644556
 21.5342940114404584 32.7116035981176765 24.4249783362055695
 21.5342940114404584 32.7116035981176765 27.3099740034466834
 21.5342940114404584 32.7116035981176765 30.1949696706877972
 19.1580987663389344 30.9851966977073019 15.7699913344822278
 19.1580987663389344 30.9851966977073019 18.6549870017233417
 19.1580987663389344 30.9851966977073019 21.5399826689644556
 19.1580987663389344 30.9851966977073019 24.4249783362055695
 19.1580987663389344 30.9851966977073019 27.3099740034466834
 19.1580987663389344 30.9851966977073019 30.1949696706877972
 16.7819035212374104 29.2587897972969238 15.7699913344822278
 16.7819035212374104 29.2587897972969238 18.6549870017233417
 16.7819035212374104 29.2587897972969238 21.5399826689644556
 16.7819035212374104 29.2587897972969238 24.4249783362055695
 16.7819035212374104 29.2587897972969238 27.3099740034466834
 16.7819035212374104 29.2587897972969238 30.1949696706877972
 17.6895293409603056 26.4654047540205752 15.7699913344822278
 17.6895293409603056 26.4654047540205752 18.6549870017233417
 17.6895293409603056 26.4654047540205752 21.5399826689644556
 17.6895293409603056 26.4654047540205752 24.4249783362055695
 17.6895293409603056 26.4654047540205752 27.3099740034466834
 17.6895293409603056 26.4654047540205752 30.1949696706877972
 18.5971551606832008 23.6720197107442303 15.7699913344822278
 18.5971551606832008 23.6720197107442303 18.6549870017233417
 18.5971551606832008 23.6720197107442303 21.5399826689644556
 18.5971551606832008 23.6720197107442303 24.4249783362055695
 18.5971551606832008 23.6720197107442303 27.3099740034466834
 18.5971551606832008 23.6720197107442303 30.1949696706877972
 19.5047809804060961 20.8786346674678818 15.7699913344822278
 19.5047809804060961 20.8786346674678818 18.6549870017233417
 19.5047809804060961 20.8786346674678818 21.5399826689644556
 19.5047809804060961 20.8786346674678818 24.4249783362055695
 19.5047809804060961 20.8786346674678818 27.3099740034466834
 19.5047809804060961 20.8786346674678818 30.1949696706877972
 20.4124068001289913 18.0852496241915333 15.7699913344822278
 20.4124068001289913 18.0852496241915333 18.6549870017233417
 20.4124068001289913 18.0852496241915333 21.5399826689644556
 20.4124068001289913 18.0852496241915333 24.4249783362055695
 20.4124068001289913 18.0852496241915333 27.3099740034466834
 20.4124068001289913 18.0852496241915333 30.1949696706877972
 23.3495456508862453 18.0852496241915333 15.7699913344822278
 23.3495456508862453 18.0852496241915333 18.6549870017233417
 23.3495456508862453 18.0852496241915333 21.5399826689644556
 23.3495456508862453 18.0852496241915333 24.4249783362055695
 23.3495456508862453 18.0852496241915333 27.3099740034466834
 23.3495456508862453 18.0852496241915333 30.1949696706877972
 26.2866845016435029 18.0852496241915333 15.7699913344822278
 26.2866845016435029 18.0852496241915333 18.6549870017233417
 26.2866845016435029 18.0852496241915333 21.5399826689644556
 26.2866845016435029 18.0852496241915333 24.4249783362055695
 26.2866845016435029 18.0852496241915333 27.3099740034466834
 26.2866845016435029 18.0852496241915333 30.1949696706877972
 29.2238233524007569 18.0852496241915333 15.7699913344822278
 29.2238233524007569 18.0852496241915333 18.6549870017233417
 29.2238233524007569 18.0852496241915333 21.5399826689644556
 29.2238233524007569 18.0852496241915333 24.4249783362055695
 29.2238233524007569 18.0852496241915333 27.3099740034466834
 29.2238233524007569 18.0852496241915333 30.1949696706877972
 32.1609622031580145 18.0852496241915333 15.7699913344822278
 32.1609622031580145 18.0852496241915333 18.6549870017233417
 32.1609622031580145 18.0852496241915333 21.5399826689644556
 32.1609622031580145 18.0852496241915333 24.4249783362055695
 32.1609622031580145 18.0852496241915333 27.3099740034466834
 32.1609622031580145 18.0852496241915333 30.1949696706877972
 33.0685880228809097 20.8786346674678782 15.7699913344822278
 33.0685880228809097 20.8786346674678782 18.6549870017233417
 33.0685880228809097 20.8786346674678782 21.5399826689644556
 33.0685880228809097 20.8786346674678782 24.4249783362055695
 33.0685880228809097 20.8786346674678782 27.3099740034466834
 33.0685880228809097 20.8786346674678782 30.1949696706877972
 33.9762138426038049 23.6720197107442267 15.7699913344822278
 33.9762138426038049 23.6720197107442267 18.6549870017233417
 33.9762138426038049 23.6720197107442267 21.5399826689644556
 33.9762138426038049 23.6720197107442267 24.4249783362055695
 33.9762138426038049 23.6720197107442267 27.3099740034466834
 33.9762138426038049 23.6720197107442267 30.1949696706877972
 34.8838396623267002 26.4654047540205752 15.7699913344822278
 34.8838396623267002 26.4654047540205752 18.6549870017233417
 34.8838396623267002 26.4654047540205752 21.5399826689644556
 34.8838396623267002 26.4654047540205752 24.4249783362055695
 34.8838396623267002 26.4654047540205752 27.3099740034466834
 34.8838396623267002 26.4654047540205752 30.1949696706877972
 38.1676607271511159 30.0308624345253818 17.2124891681027847
 38.1676607271511159 30.0308624345253818 20.0974848353438986
 38.1676607271511159 30.0308624345253818 22.9824805025850125
 38.1676607271511159 30.0308624345253818 25.8674761698261264
 38.1676607271511159 30.0308624345253818 28.7524718370672403
 35.7914654820495954 31.7572693349357635 17.2124891681027847
 35.7914654820495954 31.7572693349357635 20.0974848353438986
 35.7914654820495954 31.7572693349357635 22.9824805025850125
 35.7914654820495954 31.7572693349357635 25.8674761698261264
 35.7914654820495954 31.7572693349357635 28.7524718370672403
 33.4152702369480750 33.4836762353461381 17.2124891681027847
 33.4152702369480750 33.4836762353461381 20.0974848353438986
 33.4152702369480750 33.4836762353461381 22.9824805025850125
 33.4152702369480750 33.4836762353461381 25.8674761698261264
 33.4152702369480750 33.4836762353461381 28.7524718370672403
 31.0390749918465474 35.2100831357565198 17.2124891681027847
 31.0390749918465474 35.2100831357565198 20.0974848353438986
 31.0390749918465474 35.2100831357565198 22.9824805025850125
 31.0390749918465474 35.2100831357565198 25.8674761698261264
 31.0390749918465474 35.2100831357565198 28.7524718370672403
 28.6628797467450269 36.9364900361669015 17.2124891681027847
 28.6628797467450269 36.9364900361669015 20.0974848353438986
 28.6628797467450269 36.9364900361669015 22.9824805025850125
 28.6628797467450269 36.9364900361669015 25.8674761698261264
 28.6628797467450269 36.9364900361669015 28.7524718370672403
 26.2866845016435029 38.6628969365772761 17.2124891681027847
 26.2866845016435029 38.6628969365772761 20.0974848353438986
 26.2866845016435029 38.6628969365772761 22.9824805025850125
 26.2866845016435029 38.6628969365772761 25.8674761698261264
 26.2866845016435029 38.6628969365772761 28.7524718370672403
 23.9104892565419789 36.9364900361669015 17.2124891681027847
 23.9104892565419789 36.9364900361669015 20.0974848353438986
 23.9104892565419789 36.9364900361669015 22.9824805025850125
 23.9104892565419789 36.9364900361669015 25.8674761698261264
 23.9104892565419789 36.9364900361669015 28.7524718370672403
 21.5342940114404584 35.2100831357565198 17.2124891681027847
 21.5342940114404584 35.2100831357565198 20.0974848353438986
 21.5342940114404584 35.2100831357565198 22.9824805025850125
 21.5342940114404584 35.2100831357565198 25.8674761698261264
 21.5342940114404584 35.2100831357565198 28.7524718370672403
 19.1580987663389344 33.4836762353461452 17.2124891681027847
 19.1580987663389344 33.4836762353461452 20.0974848353438986
 19.1580987663389344 33.4836762353461452 22.9824805025850125
 19.1580987663389344 33.4836762353461452 25.8674761698261264
 19.1580987663389344 33.4836762353461452 28.7524718370672403
 16.7819035212374104 31.7572693349357635 17.2124891681027847
 16.7819035212374104 31.7572693349357635 20.0974848353438986
 16.7819035212374104 31.7572693349357635 22.9824805025850125
 16.7819035212374104 31.7572693349357635 25.8674761698261264
 16.7819035212374104 31.7572693349357635 28.7524718370672403
 14.4057082761358899 30.0308624345253854 17.2124891681027847
 14.4057082761358899 30.0308624345253854 20.0974848353438986
 14.4057082761358899 30.0308624345253854 22.9824805025850125
 14.4057082761358899 30.0308624345253854 25.8674761698261264
 14.4057082761358899 30.0308624345253854 28.7524718370672403
 15.3133340958587834 27.2374773912490404 17.2124891681027847
 15.3133340958587834 27.2374773912490404 20.0974848353438986
 15.3133340958587834 27.2374773912490404 22.9824805025850125
 15.3133340958587834 27.2374773912490404 25.8674761698261264
 15.3133340958587834 27.2374773912490404 28.7524718370672403
 16.2209599155816768 24.4440923479726919 17.2124891681027847
 16.2209599155816768 24.4440923479726919 20.0974848353438986
 16.2209599155816768 24.4440923479726919 22.9824805025850125
 16.2209599155816768 24.4440923479726919 25.8674761698261264
 16.2209599155816768 24.4440923479726919 28.7524718370672403
 17.1285857353045721 21.6507073046963470 17.2124891681027847
 17.1285857353045721 21.6507073046963470 20.0974848353438986
 17.1285857353045721 21.6507073046963470 22.9824805025850125
 17.1285857353045721 21.6507073046963470 25.8674761698261264
 17.1285857353045721 21.6507073046963470 28.7524718370672403
 18.0362115550274673 18.8573222614199985 17.2124891681027847
 18.0362115550274673 18.8573222614199985 20.0974848353438986
 18.0362115550274673 18.8573222614199985 22.9824805025850125
 18.0362115550274673 18.8573222614199985 25.8674761698261264
 18.0362115550274673 18.8573222614199985 28.7524718370672403
 18.9438373747503590 16.0639372181436499 17.2124891681027847
 18.9438373747503590 16.0639372181436499 20.0974848353438986
 18.9438373747503590 16.0639372181436499 22.9824805025850125
 18.9438373747503590 16.0639372181436499 25.8674761698261264
 18.9438373747503590 16.0639372181436499 28.7524718370672403
 21.8809762255076166 16.0639372181436499 17.2124891681027847
 21.8809762255076166 16.0639372181436499 20.0974848353438986
 21.8809762255076166 16.0639372181436499 22.9824805025850125
 21.8809762255076166 16.0639372181436499 25.8674761698261264
 21.8809762255076166 16.0639372181436499 28.7524718370672403
 24.8181150762648741 16.0639372181436499 17.2124891681027847
 24.8181150762648741 16.0639372181436499 20.0974848353438986
 24.8181150762648741 16.0639372181436499 22.9824805025850125
 24.8181150762648741 16.0639372181436499 25.8674761698261264
 24.8181150762648741 16.0639372181436499 28.7524718370672403
 27.7552539270221281 16.0639372181436499 17.2124891681027847
 27.7552539270221281 16.0639372181436499 20.0974848353438986
 27.7552539270221281 16.0639372181436499 22.9824805025850125
 27.7552539270221281 16.0639372181436499 25.8674761698261264
 27.7552539270221281 16.0639372181436499 28.7524718370672403
 30.6923927777793857 16.0639372181436499 17.2124891681027847
 30.6923927777793857 16.0639372181436499 20.0974848353438986
 30.6923927777793857 16.0639372181436499 22.9824805025850125
 30.6923927777793857 16.0639372181436499 25.8674761698261264
 30.6923927777793857 16.0639372181436499 28.7524718370672403
 33.6295316285366397 16.0639372181436499 17.2124891681027847
 33.6295316285366397 16.0639372181436499 20.0974848353438986
 33.6295316285366397 16.0639372181436499 22.9824805025850125
 33.6295316285366397 16.0639372181436499 25.8674761698261264
 33.6295316285366397 16.0639372181436499 28.7524718370672403
 34.5371574482595349 18.8573222614199949 17.2124891681027847
 34.5371574482595349 18.8573222614199949 20.0974848353438986
 34.5371574482595349 18.8573222614199949 22.9824805025850125
 34.5371574482595349 18.8573222614199949 25.8674761698261264
 34.5371574482595349 18.8573222614199949 28.7524718370672403
 35.4447832679824302 21.6507073046963434 17.2124891681027847
 35.4447832679824302 21.6507073046963434 20.0974848353438986
 35.4447832679824302 21.6507073046963434 22.9824805025850125
 35.4447832679824302 21.6507073046963434 25.8674761698261264
 35.4447832679824302 21.6507073046963434 28.7524718370672403
 36.3524090877053254 24.4440923479726884 17.2124891681027847
 36.3524090877053254 24.4440923479726884 20.0974848353438986
 36.3524090877053254 24.4440923479726884 22.9824805025850125
 36.3524090877053254 24.4440923479726884 25.8674761698261264
 36.3524090877053254 24.4440923479726884 28.7524718370672403
 37.2600349074282207 27.2374773912490369 17.2124891681027847
 37.2600349074282207 27.2374773912490369 20.0974848353438986
 37.2600349074282207 27.2374773912490369 22.9824805025850125
 37.2600349074282207 27.2374773912490369 25.8674761698261264
 37.2600349074282207 27.2374773912490369 28.7524718370672403
 38.1676607271511159 32.5293419721642252 18.6549870017233417
 38.1676607271511159 32.5293419721642252 21.5399826689644556