Pt 
 1.0000000000000000
    50.2180903491529591    0.0000000000000000    0.0000000000000000
     0.0000000000000000   48.7391117365576179    0.0000000000000000
     0.0000000000000000    0.0000000000000000   50.4904444047639274
 Pt 
 967
Cartesian
 25.1090451745764796 23.5943167700867527 10.0000000000000036
 25.1090451745764796 23.5943167700867527 12.7718585822512694
 25.1090451745764796 23.5943167700867527 15.5437171645025352
 25.1090451745764796 23.5943167700867527 18.3155757467538010
 25.1090451745764796 23.5943167700867527 21.0874343290050703
 25.1090451745764796 23.5943167700867527 23.8592929112563326
 25.1090451745764796 23.5943167700867527 26.6311514935076019
 25.1090451745764796 23.5943167700867527 29.4030100757588677
 25.1090451745764796 23.5943167700867527 32.1748686580101335
 25.1090451745764796 23.5943167700867527 34.9467272402613958
 25.1090451745764796 23.5943167700867527 37.7185858225126651
 25.1090451745764796 23.5943167700867527 40.4904444047639345
 27.3920562924191202 24.3361120489925291 11.3859292911256365
 27.3920562924191202 24.3361120489925291 14.1577878733769023
 27.3920562924191202 24.3361120489925291 16.9296464556281698
 27.3920562924191202 24.3361120489925291 19.7015050378794356
 27.3920562924191202 24.3361120489925291 22.4733636201307014
 27.3920562924191202 24.3361120489925291 25.2452222023819672
 27.3920562924191202 24.3361120489925291 28.0170807846332366
 27.3920562924191202 24.3361120489925291 30.7889393668844988
 27.3920562924191202 24.3361120489925291 33.5607979491357682
 27.3920562924191202 24.3361120489925291 36.3326565313870304
 27.3920562924191202 24.3361120489925291 39.1045151136382998
 25.1090451745764796 25.9948167180142669 11.3859292911256365
 25.1090451745764796 25.9948167180142669 14.1577878733769023
 25.1090451745764796 25.9948167180142669 16.9296464556281698
 25.1090451745764796 25.9948167180142669 19.7015050378794356
 25.1090451745764796 25.9948167180142669 22.4733636201307014
 25.1090451745764796 25.9948167180142669 25.2452222023819672
 25.1090451745764796 25.9948167180142669 28.0170807846332366
 25.1090451745764796 25.9948167180142669 30.7889393668844988
 25.1090451745764796 25.9948167180142669 33.5607979491357682
 25.1090451745764796 25.9948167180142669 36.3326565313870304
 25.1090451745764796 25.9948167180142669 39.1045151136382998
 22.8260340567338389 24.3361120489925327 11.3859292911256365
 22.8260340567338389 24.3361120489925327 14.1577878733769023
 22.8260340567338389 24.3361120489925327 16.9296464556281698
 22.8260340567338389 24.3361120489925327 19.7015050378794356
 22.8260340567338389 24.3361120489925327 22.4733636201307014
 22.8260340567338389 24.3361120489925327 25.2452222023819672
 22.8260340567338389 24.3361120489925327 28.0170807846332366
 22.8260340567338389 24.3361120489925327 30.7889393668844988
 22.8260340567338389 24.3361120489925327 33.5607979491357682
 22.8260340567338389 24.3361120489925327 36.3326565313870304
 22.8260340567338389 24.3361120489925327 39.1045151136382998
 23.6980667070558368 21.6522715172172191 11.3859292911256365
 23.6980667070558368 21.6522715172172191 14.1577878733769023
 23.6980667070558368 21.6522715172172191 16.9296464556281698
 23.6980667070558368 21.6522715172172191 19.7015050378794356
 23.6980667070558368 21.6522715172172191 22.4733636201307014
 23.6980667070558368 21.6522715172172191 25.2452222023819672
 23.6980667070558368 21.6522715172172191 28.0170807846332366
 23.6980667070558368 21.6522715172172191 30.7889393668844988
 23.6980667070558368 21.6522715172172191 33.5607979491357682
 23.6980667070558368 21.6522715172172191 36.3326565313870304
 23.6980667070558368 21.6522715172172191 39.1045151136382998
 26.5200236420971223 21.6522715172172155 11.3859292911256365
 26.5200236420971223 21.6522715172172155 14.1577878733769023
 26.5200236420971223 21.6522715172172155 16.9296464556281698
 26.5200236420971223 21.6522715172172155 19.7015050378794356
 26.5200236420971223 21.6522715172172155 22.4733636201307014
 26.5200236420971223 21.6522715172172155 25.2452222023819672
 26.5200236420971223 21.6522715172172155 28.0170807846332366
 26.5200236420971223 21.6522715172172155 30.7889393668844988
 26.5200236420971223 21.6522715172172155 33.5607979491357682
 26.5200236420971223 21.6522715172172155 36.3326565313870304
 26.5200236420971223 21.6522715172172155 39.1045151136382998
 29.6750674102617573 25.0779073278983091 12.7718585822512694
 29.6750674102617573 25.0779073278983091 15.5437171645025352
 29.6750674102617573 25.0779073278983091 18.3155757467538010
 29.6750674102617573 25.0779073278983091 21.0874343290050703
 29.6750674102617573 25.0779073278983091 23.8592929112563326
 29.6750674102617573 25.0779073278983091 26.6311514935076019
 29.6750674102617573 25.0779073278983091 29.4030100757588677
 29.6750674102617573 25.0779073278983091 32.1748686580101335
 29.6750674102617573 25.0779073278983091 34.9467272402613958
 29.6750674102617573 25.0779073278983091 37.7185858225126651
 27.3920562924191202 26.7366119969200433 12.7718585822512694
 27.3920562924191202 26.7366119969200433 15.5437171645025352
 27.3920562924191202 26.7366119969200433 18.3155757467538010
 27.3920562924191202 26.7366119969200433 21.0874343290050703
 27.3920562924191202 26.7366119969200433 23.8592929112563326
 27.3920562924191202 26.7366119969200433 26.6311514935076019
 27.3920562924191202 26.7366119969200433 29.4030100757588677
 27.3920562924191202 26.7366119969200433 32.1748686580101335
 27.3920562924191202 26.7366119969200433 34.9467272402613958
 27.3920562924191202 26.7366119969200433 37.7185858225126651
 25.1090451745764796 28.3953166659417811 12.7718585822512694
 25.1090451745764796 28.3953166659417811 15.5437171645025352
 25.1090451745764796 28.3953166659417811 18.3155757467538010
 25.1090451745764796 28.3953166659417811 21.0874343290050703
 25.1090451745764796 28.3953166659417811 23.8592929112563326
 25.1090451745764796 28.3953166659417811 26.6311514935076019
 25.1090451745764796 28.3953166659417811 29.4030100757588677
 25.1090451745764796 28.3953166659417811 32.1748686580101335
 25.1090451745764796 28.3953166659417811 34.9467272402613958
 25.1090451745764796 28.3953166659417811 37.7185858225126651
 22.8260340567338389 26.7366119969200469 12.7718585822512694
 22.8260340567338389 26.7366119969200469 15.5437171645025352
 22.8260340567338389 26.7366119969200469 18.3155757467538010
 22.8260340567338389 26.7366119969200469 21.0874343290050703
 22.8260340567338389 26.7366119969200469 23.8592929112563326
 22.8260340567338389 26.7366119969200469 26.6311514935076019
 22.8260340567338389 26.7366119969200469 29.4030100757588677
 22.8260340567338389 26.7366119969200469 32.1748686580101335
 22.8260340567338389 26.7366119969200469 34.9467272402613958
 22.8260340567338389 26.7366119969200469 37.7185858225126651
 20.5430229388912018 25.0779073278983091 12.7718585822512694
 20.5430229388912018 25.0779073278983091 15.5437171645025352
 20.5430229388912018 25.0779073278983091 18.3155757467538010
 20.5430229388912018 25.0779073278983091 21.0874343290050703
 20.5430229388912018 25.0779073278983091 23.8592929112563326
 20.5430229388912018 25.0779073278983091 26.6311514935076019
 20.5430229388912018 25.0779073278983091 29.4030100757588677
 20.5430229388912018 25.0779073278983091 32.1748686580101335
 20.5430229388912018 25.0779073278983091 34.9467272402613958
 20.5430229388912018 25.0779073278983091 37.7185858225126651
 21.4150555892131962 22.3940667961229956 12.7718585822512694
 21.4150555892131962 22.3940667961229956 15.5437171645025352
 21.4150555892131962 22.3940667961229956 18.3155757467538010
 21.4150555892131962 22.3940667961229956 21.0874343290050703
 21.4150555892131962 22.3940667961229956 23.8592929112563326
 21.4150555892131962 22.3940667961229956 26.6311514935076019
 21.4150555892131962 22.3940667961229956 29.4030100757588677
 21.4150555892131962 22.3940667961229956 32.1748686580101335
 21.4150555892131962 22.3940667961229956 34.9467272402613958
 21.4150555892131962 22.3940667961229956 37.7185858225126651
 22.2870882395351941 19.7102262643476820 12.7718585822512694
 22.2870882395351941 19.7102262643476820 15.5437171645025352
 22.2870882395351941 19.7102262643476820 18.3155757467538010
 22.2870882395351941 19.7102262643476820 21.0874343290050703
 22.2870882395351941 19.7102262643476820 23.8592929112563326
 22.2870882395351941 19.7102262643476820 26.6311514935076019
 22.2870882395351941 19.7102262643476820 29.4030100757588677
 22.2870882395351941 19.7102262643476820 32.1748686580101335
 22.2870882395351941 19.7102262643476820 34.9467272402613958
 22.2870882395351941 19.7102262643476820 37.7185858225126651
 25.1090451745764796 19.7102262643476820 12.7718585822512694
 25.1090451745764796 19.7102262643476820 15.5437171645025352
 25.1090451745764796 19.7102262643476820 18.3155757467538010
 25.1090451745764796 19.7102262643476820 21.0874343290050703
 25.1090451745764796 19.7102262643476820 23.8592929112563326
 25.1090451745764796 19.7102262643476820 26.6311514935076019
 25.1090451745764796 19.7102262643476820 29.4030100757588677
 25.1090451745764796 19.7102262643476820 32.1748686580101335
 25.1090451745764796 19.7102262643476820 34.9467272402613958
 25.1090451745764796 19.7102262643476820 37.7185858225126651
 27.9310021096177650 19.7102262643476820 12.7718585822512694
 27.9310021096177650 19.7102262643476820 15.5437171645025352
 27.9310021096177650 19.7102262643476820 18.3155757467538010
 27.9310021096177650 19.7102262643476820 21.0874343290050703
 27.9310021096177650 19.7102262643476820 23.8592929112563326
 27.9310021096177650 19.7102262643476820 26.6311514935076019
 27.9310021096177650 19.7102262643476820 29.4030100757588677
 27.9310021096177650 19.7102262643476820 32.1748686580101335
 27.9310021096177650 19.7102262643476820 34.9467272402613958
 27.9310021096177650 19.7102262643476820 37.7185858225126651
 28.8030347599397629 22.3940667961229956 12.7718585822512694
 28.8030347599397629 22.3940667961229956 15.5437171645025352
 28.8030347599397629 22.3940667961229956 18.3155757467538010
 28.8030347599397629 22.3940667961229956 21.0874343290050703
 28.8030347599397629 22.3940667961229956 23.8592929112563326
 28.8030347599397629 22.3940667961229956 26.6311514935076019
 28.8030347599397629 22.3940667961229956 29.4030100757588677
 28.8030347599397629 22.3940667961229956 32.1748686580101335
 28.8030347599397629 22.3940667961229956 34.9467272402613958
 28.8030347599397629 22.3940667961229956 37.7185858225126651
 31.9580785281043980 25.8197026068040856 14.1577878733769023
 31.9580785281043980 25.8197026068040856 16.9296464556281663
 31.9580785281043980 25.8197026068040856 19.7015050378794356
 31.9580785281043980 25.8197026068040856 22.4733636201307014
 31.9580785281043980 25.8197026068040856 25.2452222023819672
 31.9580785281043980 25.8197026068040856 28.0170807846332330
 31.9580785281043980 25.8197026068040856 30.7889393668844988
 31.9580785281043980 25.8197026068040856 33.5607979491357682
 31.9580785281043980 25.8197026068040856 36.3326565313870304
 29.6750674102617573 27.4784072758258233 14.1577878733769023
 29.6750674102617573 27.4784072758258233 16.9296464556281663
 29.6750674102617573 27.4784072758258233 19.7015050378794356
 29.6750674102617573 27.4784072758258233 22.4733636201307014
 29.6750674102617573 27.4784072758258233 25.2452222023819672
 29.6750674102617573 27.4784072758258233 28.0170807846332330
 29.6750674102617573 27.4784072758258233 30.7889393668844988
 29.6750674102617573 27.4784072758258233 33.5607979491357682
 29.6750674102617573 27.4784072758258233 36.3326565313870304
 27.3920562924191202 29.1371119448475575 14.1577878733769023
 27.3920562924191202 29.1371119448475575 16.9296464556281663
 27.3920562924191202 29.1371119448475575 19.7015050378794356
 27.3920562924191202 29.1371119448475575 22.4733636201307014
 27.3920562924191202 29.1371119448475575 25.2452222023819672
 27.3920562924191202 29.1371119448475575 28.0170807846332330
 27.3920562924191202 29.1371119448475575 30.7889393668844988
 27.3920562924191202 29.1371119448475575 33.5607979491357682
 27.3920562924191202 29.1371119448475575 36.3326565313870304
 25.1090451745764796 30.7958166138692953 14.1577878733769023
 25.1090451745764796 30.7958166138692953 16.9296464556281663
 25.1090451745764796 30.7958166138692953 19.7015050378794356
 25.1090451745764796 30.7958166138692953 22.4733636201307014
 25.1090451745764796 30.7958166138692953 25.2452222023819672
 25.1090451745764796 30.7958166138692953 28.0170807846332330
 25.1090451745764796 30.7958166138692953 30.7889393668844988
 25.1090451745764796 30.7958166138692953 33.5607979491357682
 25.1090451745764796 30.7958166138692953 36.3326565313870304
 22.8260340567338389 29.1371119448475611 14.1577878733769023
 22.8260340567338389 29.1371119448475611 16.9296464556281663
 22.8260340567338389 29.1371119448475611 19.7015050378794356
 22.8260340567338389 29.1371119448475611 22.4733636201307014
 22.8260340567338389 29.1371119448475611 25.2452222023819672
 22.8260340567338389 29.1371119448475611 28.0170807846332330
 22.8260340567338389 29.1371119448475611 30.7889393668844988
 22.8260340567338389 29.1371119448475611 33.5607979491357682
 22.8260340567338389 29.1371119448475611 36.3326565313870304
 20.5430229388912018 27.4784072758258233 14.1577878733769023
 20.5430229388912018 27.4784072758258233 16.9296464556281663
 20.5430229388912018 27.4784072758258233 19.7015050378794356
 20.5430229388912018 27.4784072758258233 22.4733636201307014
 20.5430229388912018 27.4784072758258233 25.2452222023819672
 20.5430229388912018 27.4784072758258233 28.0170807846332330
 20.5430229388912018 27.4784072758258233 30.7889393668844988
 20.5430229388912018 27.4784072758258233 33.5607979491357682
 20.5430229388912018 27.4784072758258233 36.3326565313870304
 18.2600118210485611 25.8197026068040891 14.1577878733769023
 18.2600118210485611 25.8197026068040891 16.9296464556281663
 18.2600118210485611 25.8197026068040891 19.7015050378794356
 18.2600118210485611 25.8197026068040891 22.4733636201307014
 18.2600118210485611 25.8197026068040891 25.2452222023819672
 18.2600118210485611 25.8197026068040891 28.0170807846332330
 18.2600118210485611 25.8197026068040891 30.7889393668844988
 18.2600118210485611 25.8197026068040891 33.5607979491357682
 18.2600118210485611 25.8197026068040891 36.3326565313870304
 19.1320444713705591 23.1358620750287756 14.1577878733769023
 19.1320444713705591 23.1358620750287756 16.9296464556281663
 19.1320444713705591 23.1358620750287756 19.7015050378794356
 19.1320444713705591 23.1358620750287756 22.4733636201307014
 19.1320444713705591 23.1358620750287756 25.2452222023819672
 19.1320444713705591 23.1358620750287756 28.0170807846332330
 19.1320444713705591 23.1358620750287756 30.7889393668844988
 19.1320444713705591 23.1358620750287756 33.5607979491357682
 19.1320444713705591 23.1358620750287756 36.3326565313870304
 20.0040771216925535 20.4520215432534620 14.1577878733769023
 20.0040771216925535 20.4520215432534620 16.9296464556281663
 20.0040771216925535 20.4520215432534620 19.7015050378794356
 20.0040771216925535 20.4520215432534620 22.4733636201307014
 20.0040771216925535 20.4520215432534620 25.2452222023819672
 20.0040771216925535 20.4520215432534620 28.0170807846332330
 20.0040771216925535 20.4520215432534620 30.7889393668844988
 20.0040771216925535 20.4520215432534620 33.5607979491357682
 20.0040771216925535 20.4520215432534620 36.3326565313870304
 20.8761097720145514 17.7681810114781484 14.1577878733769023
 20.8761097720145514 17.7681810114781484 16.9296464556281663
 20.8761097720145514 17.7681810114781484 19.7015050378794356
 20.8761097720145514 17.7681810114781484 22.4733636201307014
 20.8761097720145514 17.7681810114781484 25.2452222023819672
 20.8761097720145514 17.7681810114781484 28.0170807846332330
 20.8761097720145514 17.7681810114781484 30.7889393668844988
 20.8761097720145514 17.7681810114781484 33.5607979491357682
 20.8761097720145514 17.7681810114781484 36.3326565313870304
 23.6980667070558368 17.7681810114781484 14.1577878733769023
 23.6980667070558368 17.7681810114781484 16.9296464556281663
 23.6980667070558368 17.7681810114781484 19.7015050378794356
 23.6980667070558368 17.7681810114781484 22.4733636201307014
 23.6980667070558368 17.7681810114781484 25.2452222023819672
 23.6980667070558368 17.7681810114781484 28.0170807846332330
 23.6980667070558368 17.7681810114781484 30.7889393668844988
 23.6980667070558368 17.7681810114781484 33.5607979491357682
 23.6980667070558368 17.7681810114781484 36.3326565313870304
 26.5200236420971223 17.7681810114781449 14.1577878733769023
 26.5200236420971223 17.7681810114781449 16.9296464556281663
 26.5200236420971223 17.7681810114781449 19.7015050378794356
 26.5200236420971223 17.7681810114781449 22.4733636201307014
 26.5200236420971223 17.7681810114781449 25.2452222023819672
 26.5200236420971223 17.7681810114781449 28.0170807846332330
 26.5200236420971223 17.7681810114781449 30.7889393668844988
 26.5200236420971223 17.7681810114781449 33.5607979491357682
 26.5200236420971223 17.7681810114781449 36.3326565313870304
 29.3419805771384077 17.7681810114781449 14.1577878733769023
 29.3419805771384077 17.7681810114781449 16.9296464556281663
 29.3419805771384077 17.7681810114781449 19.7015050378794356
 29.3419805771384077 17.7681810114781449 22.4733636201307014
 29.3419805771384077 17.7681810114781449 25.2452222023819672
 29.3419805771384077 17.7681810114781449 28.0170807846332330
 29.3419805771384077 17.7681810114781449 30.7889393668844988
 29.3419805771384077 17.7681810114781449 33.5607979491357682
 29.3419805771384077 17.7681810114781449 36.3326565313870304
 30.2140132274604021 20.4520215432534584 14.1577878733769023
 30.2140132274604021 20.4520215432534584 16.9296464556281663
 30.2140132274604021 20.4520215432534584 19.7015050378794356
 30.2140132274604021 20.4520215432534584 22.4733636201307014
 30.2140132274604021 20.4520215432534584 25.2452222023819672
 30.2140132274604021 20.4520215432534584 28.0170807846332330
 30.2140132274604021 20.4520215432534584 30.7889393668844988
 30.2140132274604021 20.4520215432534584 33.5607979491357682
 30.2140132274604021 20.4520215432534584 36.3326565313870304
 31.0860458777824000 23.1358620750287720 14.1577878733769023
 31.0860458777824000 23.1358620750287720 16.9296464556281663
 31.0860458777824000 23.1358620750287720 19.7015050378794356
 31.0860458777824000 23.1358620750287720 22.4733636201307014
 31.0860458777824000 23.1358620750287720 25.2452222023819672
 31.0860458777824000 23.1358620750287720 28.0170807846332330
 31.0860458777824000 23.1358620750287720 30.7889393668844988
 31.0860458777824000 23.1358620750287720 33.5607979491357682
 31.0860458777824000 23.1358620750287720 36.3326565313870304
 34.2410896459470351 26.5614978857098620 15.5437171645025352
 34.2410896459470351 26.5614978857098620 18.3155757467538010
 34.2410896459470351 26.5614978857098620 21.0874343290050668
 34.2410896459470351 26.5614978857098620 23.8592929112563326
 34.2410896459470351 26.5614978857098620 26.6311514935076019
 34.2410896459470351 26.5614978857098620 29.4030100757588642
 34.2410896459470351 26.5614978857098620 32.1748686580101335
 34.2410896459470351 26.5614978857098620 34.9467272402613958
 31.9580785281043980 28.2202025547315998 15.5437171645025352
 31.9580785281043980 28.2202025547315998 18.3155757467538010
 31.9580785281043980 28.2202025547315998 21.0874343290050668
 31.9580785281043980 28.2202025547315998 23.8592929112563326
 31.9580785281043980 28.2202025547315998 26.6311514935076019
 31.9580785281043980 28.2202025547315998 29.4030100757588642
 31.9580785281043980 28.2202025547315998 32.1748686580101335
 31.9580785281043980 28.2202025547315998 34.9467272402613958
 29.6750674102617573 29.8789072237533375 15.5437171645025352
 29.6750674102617573 29.8789072237533375 18.3155757467538010
 29.6750674102617573 29.8789072237533375 21.0874343290050668
 29.6750674102617573 29.8789072237533375 23.8592929112563326
 29.6750674102617573 29.8789072237533375 26.6311514935076019
 29.6750674102617573 29.8789072237533375 29.4030100757588642
 29.6750674102617573 29.8789072237533375 32.1748686580101335
 29.6750674102617573 29.8789072237533375 34.9467272402613958
 27.3920562924191202 31.5376118927750717 15.5437171645025352
 27.3920562924191202 31.5376118927750717 18.3155757467538010
 27.3920562924191202 31.5376118927750717 21.0874343290050668
 27.3920562924191202 31.5376118927750717 23.8592929112563326
 27.3920562924191202 31.5376118927750717 26.6311514935076019
 27.3920562924191202 31.5376118927750717 29.4030100757588642
 27.3920562924191202 31.5376118927750717 32.1748686580101335
 27.3920562924191202 31.5376118927750717 34.9467272402613958
 25.1090451745764796 33.1963165617968059 15.5437171645025352
 25.1090451745764796 33.1963165617968059 18.3155757467538010
 25.1090451745764796 33.1963165617968059 21.0874343290050668
 25.1090451745764796 33.1963165617968059 23.8592929112563326
 25.1090451745764796 33.1963165617968059 26.6311514935076019
 25.1090451745764796 33.1963165617968059 29.4030100757588642
 25.1090451745764796 33.1963165617968059 32.1748686580101335
 25.1090451745764796 33.1963165617968059 34.9467272402613958
 22.8260340567338389 31.5376118927750753 15.5437171645025352
 22.8260340567338389 31.5376118927750753 18.3155757467538010
 22.8260340567338389 31.5376118927750753 21.0874343290050668
 22.8260340567338389 31.5376118927750753 23.8592929112563326
 22.8260340567338389 31.5376118927750753 26.6311514935076019
 22.8260340567338389 31.5376118927750753 29.4030100757588642
 22.8260340567338389 31.5376118927750753 32.1748686580101335
 22.8260340567338389 31.5376118927750753 34.9467272402613958
 20.5430229388912018 29.8789072237533375 15.5437171645025352
 20.5430229388912018 29.8789072237533375 18.3155757467538010
 20.5430229388912018 29.8789072237533375 21.0874343290050668
 20.5430229388912018 29.8789072237533375 23.8592929112563326
 20.5430229388912018 29.8789072237533375 26.6311514935076019
 20.5430229388912018 29.8789072237533375 29.4030100757588642
 20.5430229388912018 29.8789072237533375 32.1748686580101335
 20.5430229388912018 29.8789072237533375 34.9467272402613958
 18.2600118210485611 28.2202025547316033 15.5437171645025352
 18.2600118210485611 28.2202025547316033 18.3155757467538010
 18.2600118210485611 28.2202025547316033 21.0874343290050668
 18.2600118210485611 28.2202025547316033 23.8592929112563326
 18.2600118210485611 28.2202025547316033 26.6311514935076019
 18.2600118210485611 28.2202025547316033 29.4030100757588642
 18.2600118210485611 28.2202025547316033 32.1748686580101335
 18.2600118210485611 28.2202025547316033 34.9467272402613958
 15.9770007032059222 26.5614978857098656 15.5437171645025352
 15.9770007032059222 26.5614978857098656 18.3155757467538010
 15.9770007032059222 26.5614978857098656 21.0874343290050668
 15.9770007032059222 26.5614978857098656 23.8592929112563326
 15.9770007032059222 26.5614978857098656 26.6311514935076019
 15.9770007032059222 26.5614978857098656 29.4030100757588642
 15.9770007032059222 26.5614978857098656 32.1748686580101335
 15.9770007032059222 26.5614978857098656 34.9467272402613958
 16.8490333535279184 23.8776573539345520 15.5437171645025352
 16.8490333535279184 23.8776573539345520 18.3155757467538010
 16.8490333535279184 23.8776573539345520 21.0874343290050668
 16.8490333535279184 23.8776573539345520 23.8592929112563326
 16.8490333535279184 23.8776573539345520 26.6311514935076019
 16.8490333535279184 23.8776573539345520 29.4030100757588642
 16.8490333535279184 23.8776573539345520 32.1748686580101335
 16.8490333535279184 23.8776573539345520 34.9467272402613958
 17.7210660038499128 21.1938168221592385 15.5437171645025352
 17.7210660038499128 21.1938168221592385 18.3155757467538010
 17.7210660038499128 21.1938168221592385 21.0874343290050668
 17.7210660038499128 21.1938168221592385 23.8592929112563326
 17.7210660038499128 21.1938168221592385 26.6311514935076019
 17.7210660038499128 21.1938168221592385 29.4030100757588642
 17.7210660038499128 21.1938168221592385 32.1748686580101335
 17.7210660038499128 21.1938168221592385 34.9467272402613958
 18.5930986541719108 18.5099762903839249 15.5437171645025352
 18.5930986541719108 18.5099762903839249 18.3155757467538010
 18.5930986541719108 18.5099762903839249 21.0874343290050668
 18.5930986541719108 18.5099762903839249 23.8592929112563326
 18.5930986541719108 18.5099762903839249 26.6311514935076019
 18.5930986541719108 18.5099762903839249 29.4030100757588642
 18.5930986541719108 18.5099762903839249 32.1748686580101335
 18.5930986541719108 18.5099762903839249 34.9467272402613958
 19.4651313044939087 15.8261357586086113 15.5437171645025352
 19.4651313044939087 15.8261357586086113 18.3155757467538010
 19.4651313044939087 15.8261357586086113 21.0874343290050668
 19.4651313044939087 15.8261357586086113 23.8592929112563326
 19.4651313044939087 15.8261357586086113 26.6311514935076019
 19.4651313044939087 15.8261357586086113 29.4030100757588642
 19.4651313044939087 15.8261357586086113 32.1748686580101335
 19.4651313044939087 15.8261357586086113 34.9467272402613958
 22.2870882395351941 15.8261357586086113 15.5437171645025352
 22.2870882395351941 15.8261357586086113 18.3155757467538010
 22.2870882395351941 15.8261357586086113 21.0874343290050668
 22.2870882395351941 15.8261357586086113 23.8592929112563326
 22.2870882395351941 15.8261357586086113 26.6311514935076019
 22.2870882395351941 15.8261357586086113 29.4030100757588642
 22.2870882395351941 15.8261357586086113 32.1748686580101335
 22.2870882395351941 15.8261357586086113 34.9467272402613958
 25.1090451745764796 15.8261357586086113 15.5437171645025352
 25.1090451745764796 15.8261357586086113 18.3155757467538010
 25.1090451745764796 15.8261357586086113 21.0874343290050668
 25.1090451745764796 15.8261357586086113 23.8592929112563326
 25.1090451745764796 15.8261357586086113 26.6311514935076019
 25.1090451745764796 15.8261357586086113 29.4030100757588642
 25.1090451745764796 15.8261357586086113 32.1748686580101335
 25.1090451745764796 15.8261357586086113 34.9467272402613958
 27.9310021096177650 15.8261357586086095 15.5437171645025352
 27.9310021096177650 15.8261357586086095 18.3155757467538010
 27.9310021096177650 15.8261357586086095 21.0874343290050668
 27.9310021096177650 15.8261357586086095 23.8592929112563326
 27.9310021096177650 15.8261357586086095 26.6311514935076019
 27.9310021096177650 15.8261357586086095 29.4030100757588642
 27.9310021096177650 15.8261357586086095 32.1748686580101335
 27.9310021096177650 15.8261357586086095 34.9467272402613958
 30.7529590446590468 15.8261357586086095 15.5437171645025352
 30.7529590446590468 15.8261357586086095 18.3155757467538010
 30.7529590446590468 15.8261357586086095 21.0874343290050668
 30.7529590446590468 15.8261357586086095 23.8592929112563326
 30.7529590446590468 15.8261357586086095 26.6311514935076019
 30.7529590446590468 15.8261357586086095 29.4030100757588642
 30.7529590446590468 15.8261357586086095 32.1748686580101335
 30.7529590446590468 15.8261357586086095 34.9467272402613958
 31.6249916949810448 18.5099762903839213 15.5437171645025352
 31.6249916949810448 18.5099762903839213 18.3155757467538010
 31.6249916949810448 18.5099762903839213 21.0874343290050668
 31.6249916949810448 18.5099762903839213 23.8592929112563326
 31.6249916949810448 18.5099762903839213 26.6311514935076019
 31.6249916949810448 18.5099762903839213 29.4030100757588642
 31.6249916949810448 18.5099762903839213 32.1748686580101335
 31.6249916949810448 18.5099762903839213 34.9467272402613958
 32.4970243453030463 21.1938168221592349 15.5437171645025352
 32.4970243453030463 21.1938168221592349 18.3155757467538010
 32.4970243453030463 21.1938168221592349 21.0874343290050668
 32.4970243453030463 21.1938168221592349 23.8592929112563326
 32.4970243453030463 21.1938168221592349 26.6311514935076019
 32.4970243453030463 21.1938168221592349 29.4030100757588642
 32.4970243453030463 21.1938168221592349 32.1748686580101335
 32.4970243453030463 21.1938168221592349 34.9467272402613958
 33.3690569956250442 23.8776573539345485 15.5437171645025352
 33.3690569956250442 23.8776573539345485 18.3155757467538010
 33.3690569956250442 23.8776573539345485 21.0874343290050668
 33.3690569956250442 23.8776573539345485 23.8592929112563326
 33.3690569956250442 23.8776573539345485 26.6311514935076019
 33.3690569956250442 23.8776573539345485 29.4030100757588642
 33.3690569956250442 23.8776573539345485 32.1748686580101335
 33.3690569956250442 23.8776573539345485 34.9467272402613958
 36.5241007637896757 27.3032931646156420 16.9296464556281663
 36.5241007637896757 27.3032931646156420 19.7015050378794356
 36.5241007637896757 27.3032931646156420 22.4733636201307014
 36.5241007637896757 27.3032931646156420 25.2452222023819672
 36.5241007637896757 27.3032931646156420 28.0170807846332330
 36.5241007637896757 27.3032931646156420 30.7889393668844988
 36.5241007637896757 27.3032931646156420 33.5607979491357682
 34.2410896459470351 28.9619978336373762 16.9296464556281663
 34.2410896459470351 28.9619978336373762 19.7015050378794356
 34.2410896459470351 28.9619978336373762 22.4733636201307014
 34.2410896459470351 28.9619978336373762 25.2452222023819672
 34.2410896459470351 28.9619978336373762 28.0170807846332330
 34.2410896459470351 28.9619978336373762 30.7889393668844988
 34.2410896459470351 28.9619978336373762 33.5607979491357682
 31.9580785281043980 30.6207025026591140 16.9296464556281663
 31.9580785281043980 30.6207025026591140 19.7015050378794356
 31.9580785281043980 30.6207025026591140 22.4733636201307014
 31.9580785281043980 30.6207025026591140 25.2452222023819672
 31.9580785281043980 30.6207025026591140 28.0170807846332330
 31.9580785281043980 30.6207025026591140 30.7889393668844988
 31.9580785281043980 30.6207025026591140 33.5607979491357682
 29.6750674102617573 32.2794071716808517 16.9296464556281663
 29.6750674102617573 32.2794071716808517 19.7015050378794356
 29.6750674102617573 32.2794071716808517 22.4733636201307014
 29.6750674102617573 32.2794071716808517 25.2452222023819672