Au 
 1.0000000000000000
    43.7619524510152260    0.0000000000000000    0.0000000000000000
     0.0000000000000000   42.5989597184336262    0.0000000000000000
     0.0000000000000000    0.0000000000000000   40.1949696706877972
 Au 
 333
Cartesian
 21.8809762255076130 20.1065620302394166 10.0000000000000000
 21.8809762255076130 20.1065620302394166 12.8849956672411139
 21.8809762255076130 20.1065620302394166 15.7699913344822278
 21.8809762255076130 20.1065620302394166 18.6549870017233417
 21.8809762255076130 20.1065620302394166 21.5399826689644556
 21.8809762255076130 20.1065620302394166 24.4249783362055695
 21.8809762255076130 20.1065620302394166 27.3099740034466834
 21.8809762255076130 20.1065620302394166 30.1949696706877972
 24.2571714706091370 20.8786346674678782 11.4424978336205569
 24.2571714706091370 20.8786346674678782 14.3274935008616708
 24.2571714706091370 20.8786346674678782 17.2124891681027847
 24.2571714706091370 20.8786346674678782 20.0974848353438986
 24.2571714706091370 20.8786346674678782 22.9824805025850125
 24.2571714706091370 20.8786346674678782 25.8674761698261264
 24.2571714706091370 20.8786346674678782 28.7524718370672403
 21.8809762255076130 22.6050415678782599 11.4424978336205569
 21.8809762255076130 22.6050415678782599 14.3274935008616708
 21.8809762255076130 22.6050415678782599 17.2124891681027847
 21.8809762255076130 22.6050415678782599 20.0974848353438986
 21.8809762255076130 22.6050415678782599 22.9824805025850125
 21.8809762255076130 22.6050415678782599 25.8674761698261264
 21.8809762255076130 22.6050415678782599 28.7524718370672403
 19.5047809804060890 20.8786346674678782 11.4424978336205569
 19.5047809804060890 20.8786346674678782 14.3274935008616708
 19.5047809804060890 20.8786346674678782 17.2124891681027847
 19.5047809804060890 20.8786346674678782 20.0974848353438986
 19.5047809804060890 20.8786346674678782 22.9824805025850125
 19.5047809804060890 20.8786346674678782 25.8674761698261264
 19.5047809804060890 20.8786346674678782 28.7524718370672403
 20.4124068001289842 18.0852496241915333 11.4424978336205569
 20.4124068001289842 18.0852496241915333 14.3274935008616708
 20.4124068001289842 18.0852496241915333 17.2124891681027847
 20.4124068001289842 18.0852496241915333 20.0974848353438986
 20.4124068001289842 18.0852496241915333 22.9824805025850125
 20.4124068001289842 18.0852496241915333 25.8674761698261264
 20.4124068001289842 18.0852496241915333 28.7524718370672403
 23.3495456508862418 18.0852496241915333 11.4424978336205569
 23.3495456508862418 18.0852496241915333 14.3274935008616708
 23.3495456508862418 18.0852496241915333 17.2124891681027847
 23.3495456508862418 18.0852496241915333 20.0974848353438986
 23.3495456508862418 18.0852496241915333 22.9824805025850125
 23.3495456508862418 18.0852496241915333 25.8674761698261264
 23.3495456508862418 18.0852496241915333 28.7524718370672403
 26.6333667157106575 21.6507073046963399 12.8849956672411139
 26.6333667157106575 21.6507073046963399 15.7699913344822278
 26.6333667157106575 21.6507073046963399 18.6549870017233417
 26.6333667157106575 21.6507073046963399 21.5399826689644556
 26.6333667157106575 21.6507073046963399 24.4249783362055695
 26.6333667157106575 21.6507073046963399 27.3099740034466834
 24.2571714706091370 23.3771142051067216 12.8849956672411139
 24.2571714706091370 23.3771142051067216 15.7699913344822278
 24.2571714706091370 23.3771142051067216 18.6549870017233417
 24.2571714706091370 23.3771142051067216 21.5399826689644556
 24.2571714706091370 23.3771142051067216 24.4249783362055695
 24.2571714706091370 23.3771142051067216 27.3099740034466834
 21.8809762255076130 25.1035211055170997 12.8849956672411139
 21.8809762255076130 25.1035211055170997 15.7699913344822278
 21.8809762255076130 25.1035211055170997 18.6549870017233417
 21.8809762255076130 25.1035211055170997 21.5399826689644556
 21.8809762255076130 25.1035211055170997 24.4249783362055695
 21.8809762255076130 25.1035211055170997 27.3099740034466834
 19.5047809804060890 23.3771142051067216 12.8849956672411139
 19.5047809804060890 23.3771142051067216 15.7699913344822278
 19.5047809804060890 23.3771142051067216 18.6549870017233417
 19.5047809804060890 23.3771142051067216 21.5399826689644556
 19.5047809804060890 23.3771142051067216 24.4249783362055695
 19.5047809804060890 23.3771142051067216 27.3099740034466834
 17.1285857353045685 21.6507073046963434 12.8849956672411139
 17.1285857353045685 21.6507073046963434 15.7699913344822278
 17.1285857353045685 21.6507073046963434 18.6549870017233417
 17.1285857353045685 21.6507073046963434 21.5399826689644556
 17.1285857353045685 21.6507073046963434 24.4249783362055695
 17.1285857353045685 21.6507073046963434 27.3099740034466834
 18.0362115550274638 18.8573222614199949 12.8849956672411139
 18.0362115550274638 18.8573222614199949 15.7699913344822278
 18.0362115550274638 18.8573222614199949 18.6549870017233417
 18.0362115550274638 18.8573222614199949 21.5399826689644556
 18.0362115550274638 18.8573222614199949 24.4249783362055695
 18.0362115550274638 18.8573222614199949 27.3099740034466834
 18.9438373747503555 16.0639372181436499 12.8849956672411139
 18.9438373747503555 16.0639372181436499 15.7699913344822278
 18.9438373747503555 16.0639372181436499 18.6549870017233417
 18.9438373747503555 16.0639372181436499 21.5399826689644556
 18.9438373747503555 16.0639372181436499 24.4249783362055695
 18.9438373747503555 16.0639372181436499 27.3099740034466834
 21.8809762255076130 16.0639372181436499 12.8849956672411139
 21.8809762255076130 16.0639372181436499 15.7699913344822278
 21.8809762255076130 16.0639372181436499 18.6549870017233417
 21.8809762255076130 16.0639372181436499 21.5399826689644556
 21.8809762255076130 16.0639372181436499 24.4249783362055695
 21.8809762255076130 16.0639372181436499 27.3099740034466834
 24.8181150762648670 16.0639372181436499 12.8849956672411139
 24.8181150762648670 16.0639372181436499 15.7699913344822278
 24.8181150762648670 16.0639372181436499 18.6549870017233417
 24.8181150762648670 16.0639372181436499 21.5399826689644556
 24.8181150762648670 16.0639372181436499 24.4249783362055695
 24.8181150762648670 16.0639372181436499 27.3099740034466834
 25.7257408959877623 18.8573222614199949 12.8849956672411139
 25.7257408959877623 18.8573222614199949 15.7699913344822278
 25.7257408959877623 18.8573222614199949 18.6549870017233417
 25.7257408959877623 18.8573222614199949 21.5399826689644556
 25.7257408959877623 18.8573222614199949 24.4249783362055695
 25.7257408959877623 18.8573222614199949 27.3099740034466834
 29.0095619608121815 22.4227799419248051 14.3274935008616708
 29.0095619608121815 22.4227799419248051 17.2124891681027847
 29.0095619608121815 22.4227799419248051 20.0974848353438986
 29.0095619608121815 22.4227799419248051 22.9824805025850125
 29.0095619608121815 22.4227799419248051 25.8674761698261264
 26.6333667157106575 24.1491868423351832 14.3274935008616708
 26.6333667157106575 24.1491868423351832 17.2124891681027847
 26.6333667157106575 24.1491868423351832 20.0974848353438986
 26.6333667157106575 24.1491868423351832 22.9824805025850125
 26.6333667157106575 24.1491868423351832 25.8674761698261264
 24.2571714706091370 25.8755937427455613 14.3274935008616708
 24.2571714706091370 25.8755937427455613 17.2124891681027847
 24.2571714706091370 25.8755937427455613 20.0974848353438986
 24.2571714706091370 25.8755937427455613 22.9824805025850125
 24.2571714706091370 25.8755937427455613 25.8674761698261264
 21.8809762255076130 27.6020006431559395 14.3274935008616708
 21.8809762255076130 27.6020006431559395 17.2124891681027847
 21.8809762255076130 27.6020006431559395 20.0974848353438986
 21.8809762255076130 27.6020006431559395 22.9824805025850125
 21.8809762255076130 27.6020006431559395 25.8674761698261264
 19.5047809804060890 25.8755937427455649 14.3274935008616708
 19.5047809804060890 25.8755937427455649 17.2124891681027847
 19.5047809804060890 25.8755937427455649 20.0974848353438986
 19.5047809804060890 25.8755937427455649 22.9824805025850125
 19.5047809804060890 25.8755937427455649 25.8674761698261264
 17.1285857353045685 24.1491868423351832 14.3274935008616708
 17.1285857353045685 24.1491868423351832 17.2124891681027847
 17.1285857353045685 24.1491868423351832 20.0974848353438986
 17.1285857353045685 24.1491868423351832 22.9824805025850125
 17.1285857353045685 24.1491868423351832 25.8674761698261264
 14.7523904902030445 22.4227799419248051 14.3274935008616708
 14.7523904902030445 22.4227799419248051 17.2124891681027847
 14.7523904902030445 22.4227799419248051 20.0974848353438986
 14.7523904902030445 22.4227799419248051 22.9824805025850125
 14.7523904902030445 22.4227799419248051 25.8674761698261264
 15.6600163099259397 19.6293948986484601 14.3274935008616708
 15.6600163099259397 19.6293948986484601 17.2124891681027847
 15.6600163099259397 19.6293948986484601 20.0974848353438986
 15.6600163099259397 19.6293948986484601 22.9824805025850125
 15.6600163099259397 19.6293948986484601 25.8674761698261264
 16.5676421296488314 16.8360098553721116 14.3274935008616708
 16.5676421296488314 16.8360098553721116 17.2124891681027847
 16.5676421296488314 16.8360098553721116 20.0974848353438986
 16.5676421296488314 16.8360098553721116 22.9824805025850125
 16.5676421296488314 16.8360098553721116 25.8674761698261264
 17.4752679493717267 14.0426248120957649 14.3274935008616708
 17.4752679493717267 14.0426248120957649 17.2124891681027847
 17.4752679493717267 14.0426248120957649 20.0974848353438986
 17.4752679493717267 14.0426248120957649 22.9824805025850125
 17.4752679493717267 14.0426248120957649 25.8674761698261264
 20.4124068001289842 14.0426248120957649 14.3274935008616708
 20.4124068001289842 14.0426248120957649 17.2124891681027847
 20.4124068001289842 14.0426248120957649 20.0974848353438986
 20.4124068001289842 14.0426248120957649 22.9824805025850125
 20.4124068001289842 14.0426248120957649 25.8674761698261264
 23.3495456508862418 14.0426248120957649 14.3274935008616708
 23.3495456508862418 14.0426248120957649 17.2124891681027847
 23.3495456508862418 14.0426248120957649 20.0974848353438986
 23.3495456508862418 14.0426248120957649 22.9824805025850125
 23.3495456508862418 14.0426248120957649 25.8674761698261264
 26.2866845016434958 14.0426248120957631 14.3274935008616708
 26.2866845016434958 14.0426248120957631 17.2124891681027847
 26.2866845016434958 14.0426248120957631 20.0974848353438986
 26.2866845016434958 14.0426248120957631 22.9824805025850125
 26.2866845016434958 14.0426248120957631 25.8674761698261264
 27.1943103213663910 16.8360098553721116 14.3274935008616708
 27.1943103213663910 16.8360098553721116 17.2124891681027847
 27.1943103213663910 16.8360098553721116 20.0974848353438986
 27.1943103213663910 16.8360098553721116 22.9824805025850125
 27.1943103213663910 16.8360098553721116 25.8674761698261264
 28.1019361410892863 19.6293948986484565 14.3274935008616708
 28.1019361410892863 19.6293948986484565 17.2124891681027847
 28.1019361410892863 19.6293948986484565 20.0974848353438986
 28.1019361410892863 19.6293948986484565 22.9824805025850125
 28.1019361410892863 19.6293948986484565 25.8674761698261264
 31.3857572059137055 23.1948525791532667 15.7699913344822278
 31.3857572059137055 23.1948525791532667 18.6549870017233417
 31.3857572059137055 23.1948525791532667 21.5399826689644556
 31.3857572059137055 23.1948525791532667 24.4249783362055695
 29.0095619608121815 24.9212594795636448 15.7699913344822278
 29.0095619608121815 24.9212594795636448 18.6549870017233417
 29.0095619608121815 24.9212594795636448 21.5399826689644556
 29.0095619608121815 24.9212594795636448 24.4249783362055695
 26.6333667157106575 26.6476663799740265 15.7699913344822278
 26.6333667157106575 26.6476663799740265 18.6549870017233417
 26.6333667157106575 26.6476663799740265 21.5399826689644556
 26.6333667157106575 26.6476663799740265 24.4249783362055695
 24.2571714706091370 28.3740732803844047 15.7699913344822278
 24.2571714706091370 28.3740732803844047 18.6549870017233417
 24.2571714706091370 28.3740732803844047 21.5399826689644556
 24.2571714706091370 28.3740732803844047 24.4249783362055695
 21.8809762255076130 30.1004801807947828 15.7699913344822278
 21.8809762255076130 30.1004801807947828 18.6549870017233417
 21.8809762255076130 30.1004801807947828 21.5399826689644556
 21.8809762255076130 30.1004801807947828 24.4249783362055695
 19.5047809804060890 28.3740732803844047 15.7699913344822278
 19.5047809804060890 28.3740732803844047 18.6549870017233417
 19.5047809804060890 28.3740732803844047 21.5399826689644556
 19.5047809804060890 28.3740732803844047 24.4249783362055695
 17.1285857353045685 26.6476663799740265 15.7699913344822278
 17.1285857353045685 26.6476663799740265 18.6549870017233417
 17.1285857353045685 26.6476663799740265 21.5399826689644556
 17.1285857353045685 26.6476663799740265 24.4249783362055695
 14.7523904902030445 24.9212594795636484 15.7699913344822278
 14.7523904902030445 24.9212594795636484 18.6549870017233417
 14.7523904902030445 24.9212594795636484 21.5399826689644556
 14.7523904902030445 24.9212594795636484 24.4249783362055695
 12.3761952451015222 23.1948525791532703 15.7699913344822278
 12.3761952451015222 23.1948525791532703 18.6549870017233417
 12.3761952451015222 23.1948525791532703 21.5399826689644556
 12.3761952451015222 23.1948525791532703 24.4249783362055695
 13.2838210648244157 20.4014675358769217 15.7699913344822278
 13.2838210648244157 20.4014675358769217 18.6549870017233417
 13.2838210648244157 20.4014675358769217 21.5399826689644556
 13.2838210648244157 20.4014675358769217 24.4249783362055695
 14.1914468845473110 17.6080824926005768 15.7699913344822278
 14.1914468845473110 17.6080824926005768 18.6549870017233417
 14.1914468845473110 17.6080824926005768 21.5399826689644556
 14.1914468845473110 17.6080824926005768 24.4249783362055695
 15.0990727042702062 14.8146974493242283 15.7699913344822278
 15.0990727042702062 14.8146974493242283 18.6549870017233417
 15.0990727042702062 14.8146974493242283 21.5399826689644556
 15.0990727042702062 14.8146974493242283 24.4249783362055695
 16.0066985239931014 12.0213124060478815 15.7699913344822278
 16.0066985239931014 12.0213124060478815 18.6549870017233417
 16.0066985239931014 12.0213124060478815 21.5399826689644556
 16.0066985239931014 12.0213124060478815 24.4249783362055695
 18.9438373747503555 12.0213124060478798 15.7699913344822278
 18.9438373747503555 12.0213124060478798 18.6549870017233417
 18.9438373747503555 12.0213124060478798 21.5399826689644556
 18.9438373747503555 12.0213124060478798 24.4249783362055695
 21.8809762255076130 12.0213124060478798 15.7699913344822278
 21.8809762255076130 12.0213124060478798 18.6549870017233417
 21.8809762255076130 12.0213124060478798 21.5399826689644556
 21.8809762255076130 12.0213124060478798 24.4249783362055695
 24.8181150762648670 12.0213124060478798 15.7699913344822278
 24.8181150762648670 12.0213124060478798 18.6549870017233417
 24.8181150762648670 12.0213124060478798 21.5399826689644556
 24.8181150762648670 12.0213124060478798 24.4249783362055695
 27.7552539270221246 12.0213124060478798 15.7699913344822278
 27.7552539270221246 12.0213124060478798 18.6549870017233417
 27.7552539270221246 12.0213124060478798 21.5399826689644556
 27.7552539270221246 12.0213124060478798 24.4249783362055695
 28.6628797467450198 14.8146974493242265 15.7699913344822278
 28.6628797467450198 14.8146974493242265 18.6549870017233417
 28.6628797467450198 14.8146974493242265 21.5399826689644556
 28.6628797467450198 14.8146974493242265 24.4249783362055695
 29.5705055664679151 17.6080824926005732 15.7699913344822278
 29.5705055664679151 17.6080824926005732 18.6549870017233417
 29.5705055664679151 17.6080824926005732 21.5399826689644556
 29.5705055664679151 17.6080824926005732 24.4249783362055695
 30.4781313861908103 20.4014675358769182 15.7699913344822278
 30.4781313861908103 20.4014675358769182 18.6549870017233417
 30.4781313861908103 20.4014675358769182 21.5399826689644556
 30.4781313861908103 20.4014675358769182 24.4249783362055695
 33.7619524510152260 23.9669252163817283 17.2124891681027847
 33.7619524510152260 23.9669252163817283 20.0974848353438986
 33.7619524510152260 23.9669252163817283 22.9824805025850125
 31.3857572059137055 25.6933321167921065 17.2124891681027847
 31.3857572059137055 25.6933321167921065 20.0974848353438986
 31.3857572059137055 25.6933321167921065 22.9824805025850125
 29.0095619608121815 27.4197390172024882 17.2124891681027847
 29.0095619608121815 27.4197390172024882 20.0974848353438986
 29.0095619608121815 27.4197390172024882 22.9824805025850125
 26.6333667157106575 29.1461459176128663 17.2124891681027847
 26.6333667157106575 29.1461459176128663 20.0974848353438986
 26.6333667157106575 29.1461459176128663 22.9824805025850125
 24.2571714706091370 30.8725528180232445 17.2124891681027847
 24.2571714706091370 30.8725528180232445 20.0974848353438986
 24.2571714706091370 30.8725528180232445 22.9824805025850125
 21.8809762255076130 32.5989597184336262 17.2124891681027847
 21.8809762255076130 32.5989597184336262 20.0974848353438986
 21.8809762255076130 32.5989597184336262 22.9824805025850125
 19.5047809804060890 30.8725528180232445 17.2124891681027847
 19.5047809804060890 30.8725528180232445 20.0974848353438986
 19.5047809804060890 30.8725528180232445 22.9824805025850125
 17.1285857353045685 29.1461459176128699 17.2124891681027847
 17.1285857353045685 29.1461459176128699 20.0974848353438986
 17.1285857353045685 29.1461459176128699 22.9824805025850125
 14.7523904902030445 27.4197390172024882 17.2124891681027847
 14.7523904902030445 27.4197390172024882 20.0974848353438986
 14.7523904902030445 27.4197390172024882 22.9824805025850125
 12.3761952451015222 25.6933321167921136 17.2124891681027847
 12.3761952451015222 25.6933321167921136 20.0974848353438986
 12.3761952451015222 25.6933321167921136 22.9824805025850125
 10.0000000000000000 23.9669252163817319 17.2124891681027847
 10.0000000000000000 23.9669252163817319 20.0974848353438986
 10.0000000000000000 23.9669252163817319 22.9824805025850125
 10.9076258197228935 21.1735401731053869 17.2124891681027847
 10.9076258197228935 21.1735401731053869 20.0974848353438986
 10.9076258197228935 21.1735401731053869 22.9824805025850125
 11.8152516394457869 18.3801551298290384 17.2124891681027847
 11.8152516394457869 18.3801551298290384 20.0974848353438986
 11.8152516394457869 18.3801551298290384 22.9824805025850125
 12.7228774591686822 15.5867700865526917 17.2124891681027847
 12.7228774591686822 15.5867700865526917 20.0974848353438986
 12.7228774591686822 15.5867700865526917 22.9824805025850125
 13.6305032788915774 12.7933850432763450 17.2124891681027847
 13.6305032788915774 12.7933850432763450 20.0974848353438986
 13.6305032788915774 12.7933850432763450 22.9824805025850125
 14.5381290986144709  9.9999999999999982 17.2124891681027847
 14.5381290986144709  9.9999999999999982 20.0974848353438986
 14.5381290986144709  9.9999999999999982 22.9824805025850125
 17.4752679493717267  9.9999999999999964 17.2124891681027847
 17.4752679493717267  9.9999999999999964 20.0974848353438986
 17.4752679493717267  9.9999999999999964 22.9824805025850125
 20.4124068001289842  9.9999999999999964 17.2124891681027847
 20.4124068001289842  9.9999999999999964 20.0974848353438986
 20.4124068001289842  9.9999999999999964 22.9824805025850125
 23.3495456508862382  9.9999999999999964 17.2124891681027847
 23.3495456508862382  9.9999999999999964 20.0974848353438986
 23.3495456508862382  9.9999999999999964 22.9824805025850125
 26.2866845016434958  9.9999999999999964 17.2124891681027847
 26.2866845016434958  9.9999999999999964 20.0974848353438986
 26.2866845016434958  9.9999999999999964 22.9824805025850125
 29.2238233524007498  9.9999999999999964 17.2124891681027847
 29.2238233524007498  9.9999999999999964 20.0974848353438986
 29.2238233524007498  9.9999999999999964 22.9824805025850125
 30.1314491721236450 12.7933850432763414 17.2124891681027847
 30.1314491721236450 12.7933850432763414 20.0974848353438986
 30.1314491721236450 12.7933850432763414 22.9824805025850125
 31.0390749918465403 15.5867700865526899 17.2124891681027847
 31.0390749918465403 15.5867700865526899 20.0974848353438986
 31.0390749918465403 15.5867700865526899 22.9824805025850125
 31.9467008115694355 18.3801551298290349 17.2124891681027847
 31.9467008115694355 18.3801551298290349 20.0974848353438986
 31.9467008115694355 18.3801551298290349 22.9824805025850125
 32.8543266312923308 21.1735401731053834 17.2124891681027847
 32.8543266312923308 21.1735401731053834 20.0974848353438986
 32.8543266312923308 21.1735401731053834 22.9824805025850125
