Pt 
 1.0000000000000000
    42.8301111784263924    0.0000000000000000    0.0000000000000000
     0.0000000000000000   41.7127260039852530    0.0000000000000000
     0.0000000000000000    0.0000000000000000   56.0341615692664590
 Pt 
 789
Cartesian
 21.4150555892131962 19.7102262643476820 10.0000000000000000
 21.4150555892131962 19.7102262643476820 12.7718585822512658
 21.4150555892131962 19.7102262643476820 15.5437171645025316
 21.4150555892131962 19.7102262643476820 18.3155757467538010
 21.4150555892131962 19.7102262643476820 21.0874343290050632
 21.4150555892131962 19.7102262643476820 23.8592929112563326
 21.4150555892131962 19.7102262643476820 26.6311514935075984
 21.4150555892131962 19.7102262643476820 29.4030100757588642
 21.4150555892131962 19.7102262643476820 32.1748686580101264
 21.4150555892131962 19.7102262643476820 34.9467272402613958
 21.4150555892131962 19.7102262643476820 37.7185858225126651
 21.4150555892131962 19.7102262643476820 40.4904444047639274
 21.4150555892131962 19.7102262643476820 43.2623029870151967
 21.4150555892131962 19.7102262643476820 46.0341615692664590
 23.6980667070558368 20.4520215432534584 11.3859292911256311
 23.6980667070558368 20.4520215432534584 14.1577878733768969
 23.6980667070558368 20.4520215432534584 16.9296464556281627
 23.6980667070558368 20.4520215432534584 19.7015050378794285
 23.6980667070558368 20.4520215432534584 22.4733636201306979
 23.6980667070558368 20.4520215432534584 25.2452222023819601
 23.6980667070558368 20.4520215432534584 28.0170807846332295
 23.6980667070558368 20.4520215432534584 30.7889393668844953
 23.6980667070558368 20.4520215432534584 33.5607979491357611
 23.6980667070558368 20.4520215432534584 36.3326565313870304
 23.6980667070558368 20.4520215432534584 39.1045151136382927
 23.6980667070558368 20.4520215432534584 41.8763736958895549
 23.6980667070558368 20.4520215432534584 44.6482322781408243
 21.4150555892131962 22.1107262122751962 11.3859292911256311
 21.4150555892131962 22.1107262122751962 14.1577878733768969
 21.4150555892131962 22.1107262122751962 16.9296464556281627
 21.4150555892131962 22.1107262122751962 19.7015050378794285
 21.4150555892131962 22.1107262122751962 22.4733636201306979
 21.4150555892131962 22.1107262122751962 25.2452222023819601
 21.4150555892131962 22.1107262122751962 28.0170807846332295
 21.4150555892131962 22.1107262122751962 30.7889393668844953
 21.4150555892131962 22.1107262122751962 33.5607979491357611
 21.4150555892131962 22.1107262122751962 36.3326565313870304
 21.4150555892131962 22.1107262122751962 39.1045151136382927
 21.4150555892131962 22.1107262122751962 41.8763736958895549
 21.4150555892131962 22.1107262122751962 44.6482322781408243
 19.1320444713705555 20.4520215432534620 11.3859292911256311
 19.1320444713705555 20.4520215432534620 14.1577878733768969
 19.1320444713705555 20.4520215432534620 16.9296464556281627
 19.1320444713705555 20.4520215432534620 19.7015050378794285
 19.1320444713705555 20.4520215432534620 22.4733636201306979
 19.1320444713705555 20.4520215432534620 25.2452222023819601
 19.1320444713705555 20.4520215432534620 28.0170807846332295
 19.1320444713705555 20.4520215432534620 30.7889393668844953
 19.1320444713705555 20.4520215432534620 33.5607979491357611
 19.1320444713705555 20.4520215432534620 36.3326565313870304
 19.1320444713705555 20.4520215432534620 39.1045151136382927
 19.1320444713705555 20.4520215432534620 41.8763736958895549
 19.1320444713705555 20.4520215432534620 44.6482322781408243
 20.0040771216925535 17.7681810114781484 11.3859292911256311
 20.0040771216925535 17.7681810114781484 14.1577878733768969
 20.0040771216925535 17.7681810114781484 16.9296464556281627
 20.0040771216925535 17.7681810114781484 19.7015050378794285
 20.0040771216925535 17.7681810114781484 22.4733636201306979
 20.0040771216925535 17.7681810114781484 25.2452222023819601
 20.0040771216925535 17.7681810114781484 28.0170807846332295
 20.0040771216925535 17.7681810114781484 30.7889393668844953
 20.0040771216925535 17.7681810114781484 33.5607979491357611
 20.0040771216925535 17.7681810114781484 36.3326565313870304
 20.0040771216925535 17.7681810114781484 39.1045151136382927
 20.0040771216925535 17.7681810114781484 41.8763736958895549
 20.0040771216925535 17.7681810114781484 44.6482322781408243
 22.8260340567338389 17.7681810114781449 11.3859292911256311
 22.8260340567338389 17.7681810114781449 14.1577878733768969
 22.8260340567338389 17.7681810114781449 16.9296464556281627
 22.8260340567338389 17.7681810114781449 19.7015050378794285
 22.8260340567338389 17.7681810114781449 22.4733636201306979
 22.8260340567338389 17.7681810114781449 25.2452222023819601
 22.8260340567338389 17.7681810114781449 28.0170807846332295
 22.8260340567338389 17.7681810114781449 30.7889393668844953
 22.8260340567338389 17.7681810114781449 33.5607979491357611
 22.8260340567338389 17.7681810114781449 36.3326565313870304
 22.8260340567338389 17.7681810114781449 39.1045151136382927
 22.8260340567338389 17.7681810114781449 41.8763736958895549
 22.8260340567338389 17.7681810114781449 44.6482322781408243
 25.9810778248984739 21.1938168221592385 12.7718585822512658
 25.9810778248984739 21.1938168221592385 15.5437171645025316
 25.9810778248984739 21.1938168221592385 18.3155757467537974
 25.9810778248984739 21.1938168221592385 21.0874343290050632
 25.9810778248984739 21.1938168221592385 23.8592929112563326
 25.9810778248984739 21.1938168221592385 26.6311514935075948
 25.9810778248984739 21.1938168221592385 29.4030100757588642
 25.9810778248984739 21.1938168221592385 32.1748686580101264
 25.9810778248984739 21.1938168221592385 34.9467272402613958
 25.9810778248984739 21.1938168221592385 37.7185858225126651
 25.9810778248984739 21.1938168221592385 40.4904444047639274
 25.9810778248984739 21.1938168221592385 43.2623029870151896
 23.6980667070558368 22.8525214911809726 12.7718585822512658
 23.6980667070558368 22.8525214911809726 15.5437171645025316
 23.6980667070558368 22.8525214911809726 18.3155757467537974
 23.6980667070558368 22.8525214911809726 21.0874343290050632
 23.6980667070558368 22.8525214911809726 23.8592929112563326
 23.6980667070558368 22.8525214911809726 26.6311514935075948
 23.6980667070558368 22.8525214911809726 29.4030100757588642
 23.6980667070558368 22.8525214911809726 32.1748686580101264
 23.6980667070558368 22.8525214911809726 34.9467272402613958
 23.6980667070558368 22.8525214911809726 37.7185858225126651
 23.6980667070558368 22.8525214911809726 40.4904444047639274
 23.6980667070558368 22.8525214911809726 43.2623029870151896
 21.4150555892131962 24.5112261602027104 12.7718585822512658
 21.4150555892131962 24.5112261602027104 15.5437171645025316
 21.4150555892131962 24.5112261602027104 18.3155757467537974
 21.4150555892131962 24.5112261602027104 21.0874343290050632
 21.4150555892131962 24.5112261602027104 23.8592929112563326
 21.4150555892131962 24.5112261602027104 26.6311514935075948
 21.4150555892131962 24.5112261602027104 29.4030100757588642
 21.4150555892131962 24.5112261602027104 32.1748686580101264
 21.4150555892131962 24.5112261602027104 34.9467272402613958
 21.4150555892131962 24.5112261602027104 37.7185858225126651
 21.4150555892131962 24.5112261602027104 40.4904444047639274
 21.4150555892131962 24.5112261602027104 43.2623029870151896
 19.1320444713705555 22.8525214911809726 12.7718585822512658
 19.1320444713705555 22.8525214911809726 15.5437171645025316
 19.1320444713705555 22.8525214911809726 18.3155757467537974
 19.1320444713705555 22.8525214911809726 21.0874343290050632
 19.1320444713705555 22.8525214911809726 23.8592929112563326
 19.1320444713705555 22.8525214911809726 26.6311514935075948
 19.1320444713705555 22.8525214911809726 29.4030100757588642
 19.1320444713705555 22.8525214911809726 32.1748686580101264
 19.1320444713705555 22.8525214911809726 34.9467272402613958
 19.1320444713705555 22.8525214911809726 37.7185858225126651
 19.1320444713705555 22.8525214911809726 40.4904444047639274
 19.1320444713705555 22.8525214911809726 43.2623029870151896
 16.8490333535279184 21.1938168221592385 12.7718585822512658
 16.8490333535279184 21.1938168221592385 15.5437171645025316
 16.8490333535279184 21.1938168221592385 18.3155757467537974
 16.8490333535279184 21.1938168221592385 21.0874343290050632
 16.8490333535279184 21.1938168221592385 23.8592929112563326
 16.8490333535279184 21.1938168221592385 26.6311514935075948
 16.8490333535279184 21.1938168221592385 29.4030100757588642
 16.8490333535279184 21.1938168221592385 32.1748686580101264
 16.8490333535279184 21.1938168221592385 34.9467272402613958
 16.8490333535279184 21.1938168221592385 37.7185858225126651
 16.8490333535279184 21.1938168221592385 40.4904444047639274
 16.8490333535279184 21.1938168221592385 43.2623029870151896
 17.7210660038499128 18.5099762903839249 12.7718585822512658
 17.7210660038499128 18.5099762903839249 15.5437171645025316
 17.7210660038499128 18.5099762903839249 18.3155757467537974
 17.7210660038499128 18.5099762903839249 21.0874343290050632
 17.7210660038499128 18.5099762903839249 23.8592929112563326
 17.7210660038499128 18.5099762903839249 26.6311514935075948
 17.7210660038499128 18.5099762903839249 29.4030100757588642
 17.7210660038499128 18.5099762903839249 32.1748686580101264
 17.7210660038499128 18.5099762903839249 34.9467272402613958
 17.7210660038499128 18.5099762903839249 37.7185858225126651
 17.7210660038499128 18.5099762903839249 40.4904444047639274
 17.7210660038499128 18.5099762903839249 43.2623029870151896
 18.5930986541719108 15.8261357586086113 12.7718585822512658
 18.5930986541719108 15.8261357586086113 15.5437171645025316
 18.5930986541719108 15.8261357586086113 18.3155757467537974
 18.5930986541719108 15.8261357586086113 21.0874343290050632
 18.5930986541719108 15.8261357586086113 23.8592929112563326
 18.5930986541719108 15.8261357586086113 26.6311514935075948
 18.5930986541719108 15.8261357586086113 29.4030100757588642
 18.5930986541719108 15.8261357586086113 32.1748686580101264
 18.5930986541719108 15.8261357586086113 34.9467272402613958
 18.5930986541719108 15.8261357586086113 37.7185858225126651
 18.5930986541719108 15.8261357586086113 40.4904444047639274
 18.5930986541719108 15.8261357586086113 43.2623029870151896
 21.4150555892131962 15.8261357586086113 12.7718585822512658
 21.4150555892131962 15.8261357586086113 15.5437171645025316
 21.4150555892131962 15.8261357586086113 18.3155757467537974
 21.4150555892131962 15.8261357586086113 21.0874343290050632
 21.4150555892131962 15.8261357586086113 23.8592929112563326
 21.4150555892131962 15.8261357586086113 26.6311514935075948
 21.4150555892131962 15.8261357586086113 29.4030100757588642
 21.4150555892131962 15.8261357586086113 32.1748686580101264
 21.4150555892131962 15.8261357586086113 34.9467272402613958
 21.4150555892131962 15.8261357586086113 37.7185858225126651
 21.4150555892131962 15.8261357586086113 40.4904444047639274
 21.4150555892131962 15.8261357586086113 43.2623029870151896
 24.2370125242544816 15.8261357586086113 12.7718585822512658
 24.2370125242544816 15.8261357586086113 15.5437171645025316
 24.2370125242544816 15.8261357586086113 18.3155757467537974
 24.2370125242544816 15.8261357586086113 21.0874343290050632
 24.2370125242544816 15.8261357586086113 23.8592929112563326
 24.2370125242544816 15.8261357586086113 26.6311514935075948
 24.2370125242544816 15.8261357586086113 29.4030100757588642
 24.2370125242544816 15.8261357586086113 32.1748686580101264
 24.2370125242544816 15.8261357586086113 34.9467272402613958
 24.2370125242544816 15.8261357586086113 37.7185858225126651
 24.2370125242544816 15.8261357586086113 40.4904444047639274
 24.2370125242544816 15.8261357586086113 43.2623029870151896
 25.1090451745764796 18.5099762903839249 12.7718585822512658
 25.1090451745764796 18.5099762903839249 15.5437171645025316
 25.1090451745764796 18.5099762903839249 18.3155757467537974
 25.1090451745764796 18.5099762903839249 21.0874343290050632
 25.1090451745764796 18.5099762903839249 23.8592929112563326
 25.1090451745764796 18.5099762903839249 26.6311514935075948
 25.1090451745764796 18.5099762903839249 29.4030100757588642
 25.1090451745764796 18.5099762903839249 32.1748686580101264
 25.1090451745764796 18.5099762903839249 34.9467272402613958
 25.1090451745764796 18.5099762903839249 37.7185858225126651
 25.1090451745764796 18.5099762903839249 40.4904444047639274
 25.1090451745764796 18.5099762903839249 43.2623029870151896
 28.2640889427411146 21.9356121010650149 14.1577878733768987
 28.2640889427411146 21.9356121010650149 16.9296464556281663
 28.2640889427411146 21.9356121010650149 19.7015050378794321
 28.2640889427411146 21.9356121010650149 22.4733636201306979
 28.2640889427411146 21.9356121010650149 25.2452222023819637
 28.2640889427411146 21.9356121010650149 28.0170807846332295
 28.2640889427411146 21.9356121010650149 30.7889393668844988
 28.2640889427411146 21.9356121010650149 33.5607979491357611
 28.2640889427411146 21.9356121010650149 36.3326565313870304
 28.2640889427411146 21.9356121010650149 39.1045151136382927
 28.2640889427411146 21.9356121010650149 41.8763736958895620
 25.9810778248984739 23.5943167700867527 14.1577878733768987
 25.9810778248984739 23.5943167700867527 16.9296464556281663
 25.9810778248984739 23.5943167700867527 19.7015050378794321
 25.9810778248984739 23.5943167700867527 22.4733636201306979
 25.9810778248984739 23.5943167700867527 25.2452222023819637
 25.9810778248984739 23.5943167700867527 28.0170807846332295
 25.9810778248984739 23.5943167700867527 30.7889393668844988
 25.9810778248984739 23.5943167700867527 33.5607979491357611
 25.9810778248984739 23.5943167700867527 36.3326565313870304
 25.9810778248984739 23.5943167700867527 39.1045151136382927
 25.9810778248984739 23.5943167700867527 41.8763736958895620
 23.6980667070558368 25.2530214391084868 14.1577878733768987
 23.6980667070558368 25.2530214391084868 16.9296464556281663
 23.6980667070558368 25.2530214391084868 19.7015050378794321
 23.6980667070558368 25.2530214391084868 22.4733636201306979
 23.6980667070558368 25.2530214391084868 25.2452222023819637
 23.6980667070558368 25.2530214391084868 28.0170807846332295
 23.6980667070558368 25.2530214391084868 30.7889393668844988
 23.6980667070558368 25.2530214391084868 33.5607979491357611
 23.6980667070558368 25.2530214391084868 36.3326565313870304
 23.6980667070558368 25.2530214391084868 39.1045151136382927
 23.6980667070558368 25.2530214391084868 41.8763736958895620
 21.4150555892131962 26.9117261081302246 14.1577878733768987
 21.4150555892131962 26.9117261081302246 16.9296464556281663
 21.4150555892131962 26.9117261081302246 19.7015050378794321
 21.4150555892131962 26.9117261081302246 22.4733636201306979
 21.4150555892131962 26.9117261081302246 25.2452222023819637
 21.4150555892131962 26.9117261081302246 28.0170807846332295
 21.4150555892131962 26.9117261081302246 30.7889393668844988
 21.4150555892131962 26.9117261081302246 33.5607979491357611
 21.4150555892131962 26.9117261081302246 36.3326565313870304
 21.4150555892131962 26.9117261081302246 39.1045151136382927
 21.4150555892131962 26.9117261081302246 41.8763736958895620
 19.1320444713705555 25.2530214391084868 14.1577878733768987
 19.1320444713705555 25.2530214391084868 16.9296464556281663
 19.1320444713705555 25.2530214391084868 19.7015050378794321
 19.1320444713705555 25.2530214391084868 22.4733636201306979
 19.1320444713705555 25.2530214391084868 25.2452222023819637
 19.1320444713705555 25.2530214391084868 28.0170807846332295
 19.1320444713705555 25.2530214391084868 30.7889393668844988
 19.1320444713705555 25.2530214391084868 33.5607979491357611
 19.1320444713705555 25.2530214391084868 36.3326565313870304
 19.1320444713705555 25.2530214391084868 39.1045151136382927
 19.1320444713705555 25.2530214391084868 41.8763736958895620
 16.8490333535279184 23.5943167700867527 14.1577878733768987
 16.8490333535279184 23.5943167700867527 16.9296464556281663
 16.8490333535279184 23.5943167700867527 19.7015050378794321
 16.8490333535279184 23.5943167700867527 22.4733636201306979
 16.8490333535279184 23.5943167700867527 25.2452222023819637
 16.8490333535279184 23.5943167700867527 28.0170807846332295
 16.8490333535279184 23.5943167700867527 30.7889393668844988
 16.8490333535279184 23.5943167700867527 33.5607979491357611
 16.8490333535279184 23.5943167700867527 36.3326565313870304
 16.8490333535279184 23.5943167700867527 39.1045151136382927
 16.8490333535279184 23.5943167700867527 41.8763736958895620
 14.5660222356852778 21.9356121010650185 14.1577878733768987
 14.5660222356852778 21.9356121010650185 16.9296464556281663
 14.5660222356852778 21.9356121010650185 19.7015050378794321
 14.5660222356852778 21.9356121010650185 22.4733636201306979
 14.5660222356852778 21.9356121010650185 25.2452222023819637
 14.5660222356852778 21.9356121010650185 28.0170807846332295
 14.5660222356852778 21.9356121010650185 30.7889393668844988
 14.5660222356852778 21.9356121010650185 33.5607979491357611
 14.5660222356852778 21.9356121010650185 36.3326565313870304
 14.5660222356852778 21.9356121010650185 39.1045151136382927
 14.5660222356852778 21.9356121010650185 41.8763736958895620
 15.4380548860072757 19.2517715692897049 14.1577878733768987
 15.4380548860072757 19.2517715692897049 16.9296464556281663
 15.4380548860072757 19.2517715692897049 19.7015050378794321
 15.4380548860072757 19.2517715692897049 22.4733636201306979
 15.4380548860072757 19.2517715692897049 25.2452222023819637
 15.4380548860072757 19.2517715692897049 28.0170807846332295
 15.4380548860072757 19.2517715692897049 30.7889393668844988
 15.4380548860072757 19.2517715692897049 33.5607979491357611
 15.4380548860072757 19.2517715692897049 36.3326565313870304
 15.4380548860072757 19.2517715692897049 39.1045151136382927
 15.4380548860072757 19.2517715692897049 41.8763736958895620
 16.3100875363292701 16.5679310375143913 14.1577878733768987
 16.3100875363292701 16.5679310375143913 16.9296464556281663
 16.3100875363292701 16.5679310375143913 19.7015050378794321
 16.3100875363292701 16.5679310375143913 22.4733636201306979
 16.3100875363292701 16.5679310375143913 25.2452222023819637
 16.3100875363292701 16.5679310375143913 28.0170807846332295
 16.3100875363292701 16.5679310375143913 30.7889393668844988
 16.3100875363292701 16.5679310375143913 33.5607979491357611
 16.3100875363292701 16.5679310375143913 36.3326565313870304
 16.3100875363292701 16.5679310375143913 39.1045151136382927
 16.3100875363292701 16.5679310375143913 41.8763736958895620
 17.1821201866512681 13.8840905057390778 14.1577878733768987
 17.1821201866512681 13.8840905057390778 16.9296464556281663
 17.1821201866512681 13.8840905057390778 19.7015050378794321
 17.1821201866512681 13.8840905057390778 22.4733636201306979
 17.1821201866512681 13.8840905057390778 25.2452222023819637
 17.1821201866512681 13.8840905057390778 28.0170807846332295
 17.1821201866512681 13.8840905057390778 30.7889393668844988
 17.1821201866512681 13.8840905057390778 33.5607979491357611
 17.1821201866512681 13.8840905057390778 36.3326565313870304
 17.1821201866512681 13.8840905057390778 39.1045151136382927
 17.1821201866512681 13.8840905057390778 41.8763736958895620
 20.0040771216925535 13.8840905057390760 14.1577878733768987
 20.0040771216925535 13.8840905057390760 16.9296464556281663
 20.0040771216925535 13.8840905057390760 19.7015050378794321
 20.0040771216925535 13.8840905057390760 22.4733636201306979
 20.0040771216925535 13.8840905057390760 25.2452222023819637
 20.0040771216925535 13.8840905057390760 28.0170807846332295
 20.0040771216925535 13.8840905057390760 30.7889393668844988
 20.0040771216925535 13.8840905057390760 33.5607979491357611
 20.0040771216925535 13.8840905057390760 36.3326565313870304
 20.0040771216925535 13.8840905057390760 39.1045151136382927
 20.0040771216925535 13.8840905057390760 41.8763736958895620
 22.8260340567338389 13.8840905057390742 14.1577878733768987
 22.8260340567338389 13.8840905057390742 16.9296464556281663
 22.8260340567338389 13.8840905057390742 19.7015050378794321
 22.8260340567338389 13.8840905057390742 22.4733636201306979
 22.8260340567338389 13.8840905057390742 25.2452222023819637
 22.8260340567338389 13.8840905057390742 28.0170807846332295
 22.8260340567338389 13.8840905057390742 30.7889393668844988
 22.8260340567338389 13.8840905057390742 33.5607979491357611
 22.8260340567338389 13.8840905057390742 36.3326565313870304
 22.8260340567338389 13.8840905057390742 39.1045151136382927
 22.8260340567338389 13.8840905057390742 41.8763736958895620
 25.6479909917751243 13.8840905057390742 14.1577878733768987
 25.6479909917751243 13.8840905057390742 16.9296464556281663
 25.6479909917751243 13.8840905057390742 19.7015050378794321
 25.6479909917751243 13.8840905057390742 22.4733636201306979
 25.6479909917751243 13.8840905057390742 25.2452222023819637
 25.6479909917751243 13.8840905057390742 28.0170807846332295
 25.6479909917751243 13.8840905057390742 30.7889393668844988
 25.6479909917751243 13.8840905057390742 33.5607979491357611
 25.6479909917751243 13.8840905057390742 36.3326565313870304
 25.6479909917751243 13.8840905057390742 39.1045151136382927
 25.6479909917751243 13.8840905057390742 41.8763736958895620
 26.5200236420971187 16.5679310375143878 14.1577878733768987
 26.5200236420971187 16.5679310375143878 16.9296464556281663
 26.5200236420971187 16.5679310375143878 19.7015050378794321
 26.5200236420971187 16.5679310375143878 22.4733636201306979
 26.5200236420971187 16.5679310375143878 25.2452222023819637
 26.5200236420971187 16.5679310375143878 28.0170807846332295
 26.5200236420971187 16.5679310375143878 30.7889393668844988
 26.5200236420971187 16.5679310375143878 33.5607979491357611
 26.5200236420971187 16.5679310375143878 36.3326565313870304
 26.5200236420971187 16.5679310375143878 39.1045151136382927
 26.5200236420971187 16.5679310375143878 41.8763736958895620
 27.3920562924191167 19.2517715692897013 14.1577878733768987
 27.3920562924191167 19.2517715692897013 16.9296464556281663
 27.3920562924191167 19.2517715692897013 19.7015050378794321
 27.3920562924191167 19.2517715692897013 22.4733636201306979
 27.3920562924191167 19.2517715692897013 25.2452222023819637
 27.3920562924191167 19.2517715692897013 28.0170807846332295
 27.3920562924191167 19.2517715692897013 30.7889393668844988
 27.3920562924191167 19.2517715692897013 33.5607979491357611
 27.3920562924191167 19.2517715692897013 36.3326565313870304
 27.3920562924191167 19.2517715692897013 39.1045151136382927
 27.3920562924191167 19.2517715692897013 41.8763736958895620
 30.5471000605837517 22.6774073799707914 15.5437171645025316
 30.5471000605837517 22.6774073799707914 18.3155757467537974
 30.5471000605837517 22.6774073799707914 21.0874343290050632
 30.5471000605837517 22.6774073799707914 23.8592929112563326
 30.5471000605837517 22.6774073799707914 26.6311514935075948
 30.5471000605837517 22.6774073799707914 29.4030100757588642
 30.5471000605837517 22.6774073799707914 32.1748686580101264
 30.5471000605837517 22.6774073799707914 34.9467272402613958
 30.5471000605837517 22.6774073799707914 37.7185858225126651
 30.5471000605837517 22.6774073799707914 40.4904444047639274
 28.2640889427411146 24.3361120489925291 15.5437171645025316
 28.2640889427411146 24.3361120489925291 18.3155757467537974
 28.2640889427411146 24.3361120489925291 21.0874343290050632
 28.2640889427411146 24.3361120489925291 23.8592929112563326
 28.2640889427411146 24.3361120489925291 26.6311514935075948
 28.2640889427411146 24.3361120489925291 29.4030100757588642
 28.2640889427411146 24.3361120489925291 32.1748686580101264
 28.2640889427411146 24.3361120489925291 34.9467272402613958
 28.2640889427411146 24.3361120489925291 37.7185858225126651
 28.2640889427411146 24.3361120489925291 40.4904444047639274
 25.9810778248984739 25.9948167180142669 15.5437171645025316
 25.9810778248984739 25.9948167180142669 18.3155757467537974
 25.9810778248984739 25.9948167180142669 21.0874343290050632
 25.9810778248984739 25.9948167180142669 23.8592929112563326
 25.9810778248984739 25.9948167180142669 26.6311514935075948
 25.9810778248984739 25.9948167180142669 29.4030100757588642
 25.9810778248984739 25.9948167180142669 32.1748686580101264
 25.9810778248984739 25.9948167180142669 34.9467272402613958
 25.9810778248984739 25.9948167180142669 37.7185858225126651
 25.9810778248984739 25.9948167180142669 40.4904444047639274
 23.6980667070558368 27.6535213870360010 15.5437171645025316
 23.6980667070558368 27.6535213870360010 18.3155757467537974
 23.6980667070558368 27.6535213870360010 21.0874343290050632
 23.6980667070558368 27.6535213870360010 23.8592929112563326
 23.6980667070558368 27.6535213870360010 26.6311514935075948
 23.6980667070558368 27.6535213870360010 29.4030100757588642
 23.6980667070558368 27.6535213870360010 32.1748686580101264
 23.6980667070558368 27.6535213870360010 34.9467272402613958
 23.6980667070558368 27.6535213870360010 37.7185858225126651
 23.6980667070558368 27.6535213870360010 40.4904444047639274
 21.4150555892131962 29.3122260560577388 15.5437171645025316
 21.4150555892131962 29.3122260560577388 18.3155757467537974
 21.4150555892131962 29.3122260560577388 21.0874343290050632
 21.4150555892131962 29.3122260560577388 23.8592929112563326
 21.4150555892131962 29.3122260560577388 26.6311514935075948
 21.4150555892131962 29.3122260560577388 29.4030100757588642
 21.4150555892131962 29.3122260560577388 32.1748686580101264
 21.4150555892131962 29.3122260560577388 34.9467272402613958
 21.4150555892131962 29.3122260560577388 37.7185858225126651
 21.4150555892131962 29.3122260560577388 40.4904444047639274
 19.1320444713705555 27.6535213870360010 15.5437171645025316
 19.1320444713705555 27.6535213870360010 18.3155757467537974
 19.1320444713705555 27.6535213870360010 21.0874343290050632
 19.1320444713705555 27.6535213870360010 23.8592929112563326
 19.1320444713705555 27.6535213870360010 26.6311514935075948
 19.1320444713705555 27.6535213870360010 29.4030100757588642
 19.1320444713705555 27.6535213870360010 32.1748686580101264
 19.1320444713705555 27.6535213870360010 34.9467272402613958
 19.1320444713705555 27.6535213870360010 37.7185858225126651
 19.1320444713705555 27.6535213870360010 40.4904444047639274
 16.8490333535279184 25.9948167180142669 15.5437171645025316
 16.8490333535279184 25.9948167180142669 18.3155757467537974
 16.8490333535279184 25.9948167180142669 21.0874343290050632
 16.8490333535279184 25.9948167180142669 23.8592929112563326
 16.8490333535279184 25.9948167180142669 26.6311514935075948
 16.8490333535279184 25.9948167180142669 29.4030100757588642
 16.8490333535279184 25.9948167180142669 32.1748686580101264
 16.8490333535279184 25.9948167180142669 34.9467272402613958
 16.8490333535279184 25.9948167180142669 37.7185858225126651
 16.8490333535279184 25.9948167180142669 40.4904444047639274
 14.5660222356852778 24.3361120489925327 15.5437171645025316
 14.5660222356852778 24.3361120489925327 18.3155757467537974
 14.5660222356852778 24.3361120489925327 21.0874343290050632
 14.5660222356852778 24.3361120489925327 23.8592929112563326
 14.5660222356852778 24.3361120489925327 26.6311514935075948
 14.5660222356852778 24.3361120489925327 29.4030100757588642
 14.5660222356852778 24.3361120489925327 32.1748686580101264
 14.5660222356852778 24.3361120489925327 34.9467272402613958
 14.5660222356852778 24.3361120489925327 37.7185858225126651
 14.5660222356852778 24.3361120489925327 40.4904444047639274
 12.2830111178426389 22.6774073799707949 15.5437171645025316
 12.2830111178426389 22.6774073799707949 18.3155757467537974
 12.2830111178426389 22.6774073799707949 21.0874343290050632
 12.2830111178426389 22.6774073799707949 23.8592929112563326
 12.2830111178426389 22.6774073799707949 26.6311514935075948
 12.2830111178426389 22.6774073799707949 29.4030100757588642
 12.2830111178426389 22.6774073799707949 32.1748686580101264
 12.2830111178426389 22.6774073799707949 34.9467272402613958
 12.2830111178426389 22.6774073799707949 37.7185858225126651
 12.2830111178426389 22.6774073799707949 40.4904444047639274
 13.1550437681646351 19.9935668481954814 15.5437171645025316
 13.1550437681646351 19.9935668481954814 18.3155757467537974
 13.1550437681646351 19.9935668481954814 21.0874343290050632
 13.1550437681646351 19.9935668481954814 23.8592929112563326
 13.1550437681646351 19.9935668481954814 26.6311514935075948
 13.1550437681646351 19.9935668481954814 29.4030100757588642
 13.1550437681646351 19.9935668481954814 32.1748686580101264
 13.1550437681646351 19.9935668481954814 34.9467272402613958
 13.1550437681646351 19.9935668481954814 37.7185858225126651
 13.1550437681646351 19.9935668481954814 40.4904444047639274
 14.0270764184866312 17.3097263164201678 15.5437171645025316
 14.0270764184866312 17.3097263164201678 18.3155757467537974
 14.0270764184866312 17.3097263164201678 21.0874343290050632
 14.0270764184866312 17.3097263164201678 23.8592929112563326
 14.0270764184866312 17.3097263164201678 26.6311514935075948
 14.0270764184866312 17.3097263164201678 29.4030100757588642
 14.0270764184866312 17.3097263164201678 32.1748686580101264
 14.0270764184866312 17.3097263164201678 34.9467272402613958
 14.0270764184866312 17.3097263164201678 37.7185858225126651
 14.0270764184866312 17.3097263164201678 40.4904444047639274
 14.8991090688086274 14.6258857846448542 15.5437171645025316
 14.8991090688086274 14.6258857846448542 18.3155757467537974
 14.8991090688086274 14.6258857846448542 21.0874343290050632
 14.8991090688086274 14.6258857846448542 23.8592929112563326
 14.8991090688086274 14.6258857846448542 26.6311514935075948
 14.8991090688086274 14.6258857846448542 29.4030100757588642
 14.8991090688086274 14.6258857846448542 32.1748686580101264
 14.8991090688086274 14.6258857846448542 34.9467272402613958
 14.8991090688086274 14.6258857846448542 37.7185858225126651
 14.8991090688086274 14.6258857846448542 40.4904444047639274
 15.7711417191306253 11.9420452528695407 15.5437171645025316
 15.7711417191306253 11.9420452528695407 18.3155757467537974
 15.7711417191306253 11.9420452528695407 21.0874343290050632