Pt 
 1.0000000000000000
    61.0942001211675105    0.0000000000000000    0.0000000000000000
     0.0000000000000000   59.0829068071734511    0.0000000000000000
     0.0000000000000000    0.0000000000000000   44.9467272402613958
 Pt 
 835
Cartesian
 30.5471000605837588 27.4784072758258233 10.0000000000000000
 30.5471000605837588 27.4784072758258233 12.7718585822512658
 30.5471000605837588 27.4784072758258233 15.5437171645025316
 30.5471000605837588 27.4784072758258233 18.3155757467538010
 30.5471000605837588 27.4784072758258233 21.0874343290050632
 30.5471000605837588 27.4784072758258233 23.8592929112563326
 30.5471000605837588 27.4784072758258233 26.6311514935075984
 30.5471000605837588 27.4784072758258233 29.4030100757588642
 30.5471000605837588 27.4784072758258233 32.1748686580101264
 30.5471000605837588 27.4784072758258233 34.9467272402613958
 32.8301111784263995 28.2202025547315998 11.3859292911256329
 32.8301111784263995 28.2202025547315998 14.1577878733768987
 32.8301111784263995 28.2202025547315998 16.9296464556281663
 32.8301111784263995 28.2202025547315998 19.7015050378794321
 32.8301111784263995 28.2202025547315998 22.4733636201306979
 32.8301111784263995 28.2202025547315998 25.2452222023819637
 32.8301111784263995 28.2202025547315998 28.0170807846332295
 32.8301111784263995 28.2202025547315998 30.7889393668844988
 32.8301111784263995 28.2202025547315998 33.5607979491357611
 30.5471000605837588 29.8789072237533375 11.3859292911256329
 30.5471000605837588 29.8789072237533375 14.1577878733768987
 30.5471000605837588 29.8789072237533375 16.9296464556281663
 30.5471000605837588 29.8789072237533375 19.7015050378794321
 30.5471000605837588 29.8789072237533375 22.4733636201306979
 30.5471000605837588 29.8789072237533375 25.2452222023819637
 30.5471000605837588 29.8789072237533375 28.0170807846332295
 30.5471000605837588 29.8789072237533375 30.7889393668844988
 30.5471000605837588 29.8789072237533375 33.5607979491357611
 28.2640889427411182 28.2202025547316033 11.3859292911256329
 28.2640889427411182 28.2202025547316033 14.1577878733768987
 28.2640889427411182 28.2202025547316033 16.9296464556281663
 28.2640889427411182 28.2202025547316033 19.7015050378794321
 28.2640889427411182 28.2202025547316033 22.4733636201306979
 28.2640889427411182 28.2202025547316033 25.2452222023819637
 28.2640889427411182 28.2202025547316033 28.0170807846332295
 28.2640889427411182 28.2202025547316033 30.7889393668844988
 28.2640889427411182 28.2202025547316033 33.5607979491357611
 29.1361215930631161 25.5363620229562898 11.3859292911256329
 29.1361215930631161 25.5363620229562898 14.1577878733768987
 29.1361215930631161 25.5363620229562898 16.9296464556281663
 29.1361215930631161 25.5363620229562898 19.7015050378794321
 29.1361215930631161 25.5363620229562898 22.4733636201306979
 29.1361215930631161 25.5363620229562898 25.2452222023819637
 29.1361215930631161 25.5363620229562898 28.0170807846332295
 29.1361215930631161 25.5363620229562898 30.7889393668844988
 29.1361215930631161 25.5363620229562898 33.5607979491357611
 31.9580785281044015 25.5363620229562862 11.3859292911256329
 31.9580785281044015 25.5363620229562862 14.1577878733768987
 31.9580785281044015 25.5363620229562862 16.9296464556281663
 31.9580785281044015 25.5363620229562862 19.7015050378794321
 31.9580785281044015 25.5363620229562862 22.4733636201306979
 31.9580785281044015 25.5363620229562862 25.2452222023819637
 31.9580785281044015 25.5363620229562862 28.0170807846332295
 31.9580785281044015 25.5363620229562862 30.7889393668844988
 31.9580785281044015 25.5363620229562862 33.5607979491357611
 35.1131222962690401 28.9619978336373798 12.7718585822512658
 35.1131222962690401 28.9619978336373798 15.5437171645025316
 35.1131222962690401 28.9619978336373798 18.3155757467537974
 35.1131222962690401 28.9619978336373798 21.0874343290050632
 35.1131222962690401 28.9619978336373798 23.8592929112563326
 35.1131222962690401 28.9619978336373798 26.6311514935075948
 35.1131222962690401 28.9619978336373798 29.4030100757588642
 35.1131222962690401 28.9619978336373798 32.1748686580101264
 32.8301111784263995 30.6207025026591140 12.7718585822512658
 32.8301111784263995 30.6207025026591140 15.5437171645025316
 32.8301111784263995 30.6207025026591140 18.3155757467537974
 32.8301111784263995 30.6207025026591140 21.0874343290050632
 32.8301111784263995 30.6207025026591140 23.8592929112563326
 32.8301111784263995 30.6207025026591140 26.6311514935075948
 32.8301111784263995 30.6207025026591140 29.4030100757588642
 32.8301111784263995 30.6207025026591140 32.1748686580101264
 30.5471000605837588 32.2794071716808517 12.7718585822512658
 30.5471000605837588 32.2794071716808517 15.5437171645025316
 30.5471000605837588 32.2794071716808517 18.3155757467537974
 30.5471000605837588 32.2794071716808517 21.0874343290050632
 30.5471000605837588 32.2794071716808517 23.8592929112563326
 30.5471000605837588 32.2794071716808517 26.6311514935075948
 30.5471000605837588 32.2794071716808517 29.4030100757588642
 30.5471000605837588 32.2794071716808517 32.1748686580101264
 28.2640889427411182 30.6207025026591140 12.7718585822512658
 28.2640889427411182 30.6207025026591140 15.5437171645025316
 28.2640889427411182 30.6207025026591140 18.3155757467537974
 28.2640889427411182 30.6207025026591140 21.0874343290050632
 28.2640889427411182 30.6207025026591140 23.8592929112563326
 28.2640889427411182 30.6207025026591140 26.6311514935075948
 28.2640889427411182 30.6207025026591140 29.4030100757588642
 28.2640889427411182 30.6207025026591140 32.1748686580101264
 25.9810778248984811 28.9619978336373798 12.7718585822512658
 25.9810778248984811 28.9619978336373798 15.5437171645025316
 25.9810778248984811 28.9619978336373798 18.3155757467537974
 25.9810778248984811 28.9619978336373798 21.0874343290050632
 25.9810778248984811 28.9619978336373798 23.8592929112563326
 25.9810778248984811 28.9619978336373798 26.6311514935075948
 25.9810778248984811 28.9619978336373798 29.4030100757588642
 25.9810778248984811 28.9619978336373798 32.1748686580101264
 26.8531104752204755 26.2781573018620662 12.7718585822512658
 26.8531104752204755 26.2781573018620662 15.5437171645025316
 26.8531104752204755 26.2781573018620662 18.3155757467537974
 26.8531104752204755 26.2781573018620662 21.0874343290050632
 26.8531104752204755 26.2781573018620662 23.8592929112563326
 26.8531104752204755 26.2781573018620662 26.6311514935075948
 26.8531104752204755 26.2781573018620662 29.4030100757588642
 26.8531104752204755 26.2781573018620662 32.1748686580101264
 27.7251431255424734 23.5943167700867527 12.7718585822512658
 27.7251431255424734 23.5943167700867527 15.5437171645025316
 27.7251431255424734 23.5943167700867527 18.3155757467537974
 27.7251431255424734 23.5943167700867527 21.0874343290050632
 27.7251431255424734 23.5943167700867527 23.8592929112563326
 27.7251431255424734 23.5943167700867527 26.6311514935075948
 27.7251431255424734 23.5943167700867527 29.4030100757588642
 27.7251431255424734 23.5943167700867527 32.1748686580101264
 30.5471000605837588 23.5943167700867527 12.7718585822512658
 30.5471000605837588 23.5943167700867527 15.5437171645025316
 30.5471000605837588 23.5943167700867527 18.3155757467537974
 30.5471000605837588 23.5943167700867527 21.0874343290050632
 30.5471000605837588 23.5943167700867527 23.8592929112563326
 30.5471000605837588 23.5943167700867527 26.6311514935075948
 30.5471000605837588 23.5943167700867527 29.4030100757588642
 30.5471000605837588 23.5943167700867527 32.1748686580101264
 33.3690569956250442 23.5943167700867527 12.7718585822512658
 33.3690569956250442 23.5943167700867527 15.5437171645025316
 33.3690569956250442 23.5943167700867527 18.3155757467537974
 33.3690569956250442 23.5943167700867527 21.0874343290050632
 33.3690569956250442 23.5943167700867527 23.8592929112563326
 33.3690569956250442 23.5943167700867527 26.6311514935075948
 33.3690569956250442 23.5943167700867527 29.4030100757588642
 33.3690569956250442 23.5943167700867527 32.1748686580101264
 34.2410896459470422 26.2781573018620662 12.7718585822512658
 34.2410896459470422 26.2781573018620662 15.5437171645025316
 34.2410896459470422 26.2781573018620662 18.3155757467537974
 34.2410896459470422 26.2781573018620662 21.0874343290050632
 34.2410896459470422 26.2781573018620662 23.8592929112563326
 34.2410896459470422 26.2781573018620662 26.6311514935075948
 34.2410896459470422 26.2781573018620662 29.4030100757588642
 34.2410896459470422 26.2781573018620662 32.1748686580101264
 37.3961334141116737 29.7037931125431562 14.1577878733768987
 37.3961334141116737 29.7037931125431562 16.9296464556281663
 37.3961334141116737 29.7037931125431562 19.7015050378794321
 37.3961334141116737 29.7037931125431562 22.4733636201306979
 37.3961334141116737 29.7037931125431562 25.2452222023819637
 37.3961334141116737 29.7037931125431562 28.0170807846332295
 37.3961334141116737 29.7037931125431562 30.7889393668844988
 35.1131222962690401 31.3624977815648940 14.1577878733768987
 35.1131222962690401 31.3624977815648940 16.9296464556281663
 35.1131222962690401 31.3624977815648940 19.7015050378794321
 35.1131222962690401 31.3624977815648940 22.4733636201306979
 35.1131222962690401 31.3624977815648940 25.2452222023819637
 35.1131222962690401 31.3624977815648940 28.0170807846332295
 35.1131222962690401 31.3624977815648940 30.7889393668844988
 32.8301111784263995 33.0212024505866282 14.1577878733768987
 32.8301111784263995 33.0212024505866282 16.9296464556281663
 32.8301111784263995 33.0212024505866282 19.7015050378794321
 32.8301111784263995 33.0212024505866282 22.4733636201306979
 32.8301111784263995 33.0212024505866282 25.2452222023819637
 32.8301111784263995 33.0212024505866282 28.0170807846332295
 32.8301111784263995 33.0212024505866282 30.7889393668844988
 30.5471000605837588 34.6799071196083659 14.1577878733768987
 30.5471000605837588 34.6799071196083659 16.9296464556281663
 30.5471000605837588 34.6799071196083659 19.7015050378794321
 30.5471000605837588 34.6799071196083659 22.4733636201306979
 30.5471000605837588 34.6799071196083659 25.2452222023819637
 30.5471000605837588 34.6799071196083659 28.0170807846332295
 30.5471000605837588 34.6799071196083659 30.7889393668844988
 28.2640889427411182 33.0212024505866282 14.1577878733768987
 28.2640889427411182 33.0212024505866282 16.9296464556281663
 28.2640889427411182 33.0212024505866282 19.7015050378794321
 28.2640889427411182 33.0212024505866282 22.4733636201306979
 28.2640889427411182 33.0212024505866282 25.2452222023819637
 28.2640889427411182 33.0212024505866282 28.0170807846332295
 28.2640889427411182 33.0212024505866282 30.7889393668844988
 25.9810778248984811 31.3624977815648940 14.1577878733768987
 25.9810778248984811 31.3624977815648940 16.9296464556281663
 25.9810778248984811 31.3624977815648940 19.7015050378794321
 25.9810778248984811 31.3624977815648940 22.4733636201306979
 25.9810778248984811 31.3624977815648940 25.2452222023819637
 25.9810778248984811 31.3624977815648940 28.0170807846332295
 25.9810778248984811 31.3624977815648940 30.7889393668844988
 23.6980667070558404 29.7037931125431598 14.1577878733768987
 23.6980667070558404 29.7037931125431598 16.9296464556281663
 23.6980667070558404 29.7037931125431598 19.7015050378794321
 23.6980667070558404 29.7037931125431598 22.4733636201306979
 23.6980667070558404 29.7037931125431598 25.2452222023819637
 23.6980667070558404 29.7037931125431598 28.0170807846332295
 23.6980667070558404 29.7037931125431598 30.7889393668844988
 24.5700993573778383 27.0199525807678462 14.1577878733768987
 24.5700993573778383 27.0199525807678462 16.9296464556281663
 24.5700993573778383 27.0199525807678462 19.7015050378794321
 24.5700993573778383 27.0199525807678462 22.4733636201306979
 24.5700993573778383 27.0199525807678462 25.2452222023819637
 24.5700993573778383 27.0199525807678462 28.0170807846332295
 24.5700993573778383 27.0199525807678462 30.7889393668844988
 25.4421320076998327 24.3361120489925327 14.1577878733768987
 25.4421320076998327 24.3361120489925327 16.9296464556281663
 25.4421320076998327 24.3361120489925327 19.7015050378794321
 25.4421320076998327 24.3361120489925327 22.4733636201306979
 25.4421320076998327 24.3361120489925327 25.2452222023819637
 25.4421320076998327 24.3361120489925327 28.0170807846332295
 25.4421320076998327 24.3361120489925327 30.7889393668844988
 26.3141646580218307 21.6522715172172191 14.1577878733768987
 26.3141646580218307 21.6522715172172191 16.9296464556281663
 26.3141646580218307 21.6522715172172191 19.7015050378794321
 26.3141646580218307 21.6522715172172191 22.4733636201306979
 26.3141646580218307 21.6522715172172191 25.2452222023819637
 26.3141646580218307 21.6522715172172191 28.0170807846332295
 26.3141646580218307 21.6522715172172191 30.7889393668844988
 29.1361215930631161 21.6522715172172155 14.1577878733768987
 29.1361215930631161 21.6522715172172155 16.9296464556281663
 29.1361215930631161 21.6522715172172155 19.7015050378794321
 29.1361215930631161 21.6522715172172155 22.4733636201306979
 29.1361215930631161 21.6522715172172155 25.2452222023819637
 29.1361215930631161 21.6522715172172155 28.0170807846332295
 29.1361215930631161 21.6522715172172155 30.7889393668844988
 31.9580785281044015 21.6522715172172155 14.1577878733768987
 31.9580785281044015 21.6522715172172155 16.9296464556281663
 31.9580785281044015 21.6522715172172155 19.7015050378794321
 31.9580785281044015 21.6522715172172155 22.4733636201306979
 31.9580785281044015 21.6522715172172155 25.2452222023819637
 31.9580785281044015 21.6522715172172155 28.0170807846332295
 31.9580785281044015 21.6522715172172155 30.7889393668844988
 34.7800354631456869 21.6522715172172155 14.1577878733768987
 34.7800354631456869 21.6522715172172155 16.9296464556281663
 34.7800354631456869 21.6522715172172155 19.7015050378794321
 34.7800354631456869 21.6522715172172155 22.4733636201306979
 34.7800354631456869 21.6522715172172155 25.2452222023819637
 34.7800354631456869 21.6522715172172155 28.0170807846332295
 34.7800354631456869 21.6522715172172155 30.7889393668844988
 35.6520681134676849 24.3361120489925291 14.1577878733768987
 35.6520681134676849 24.3361120489925291 16.9296464556281663
 35.6520681134676849 24.3361120489925291 19.7015050378794321
 35.6520681134676849 24.3361120489925291 22.4733636201306979
 35.6520681134676849 24.3361120489925291 25.2452222023819637
 35.6520681134676849 24.3361120489925291 28.0170807846332295
 35.6520681134676849 24.3361120489925291 30.7889393668844988
 36.5241007637896757 27.0199525807678427 14.1577878733768987
 36.5241007637896757 27.0199525807678427 16.9296464556281663
 36.5241007637896757 27.0199525807678427 19.7015050378794321
 36.5241007637896757 27.0199525807678427 22.4733636201306979
 36.5241007637896757 27.0199525807678427 25.2452222023819637
 36.5241007637896757 27.0199525807678427 28.0170807846332295
 36.5241007637896757 27.0199525807678427 30.7889393668844988
 39.6791445319543143 30.4455883914489327 15.5437171645025316
 39.6791445319543143 30.4455883914489327 18.3155757467538010
 39.6791445319543143 30.4455883914489327 21.0874343290050632
 39.6791445319543143 30.4455883914489327 23.8592929112563326
 39.6791445319543143 30.4455883914489327 26.6311514935075984
 39.6791445319543143 30.4455883914489327 29.4030100757588642
 37.3961334141116737 32.1042930604706669 15.5437171645025316
 37.3961334141116737 32.1042930604706669 18.3155757467538010
 37.3961334141116737 32.1042930604706669 21.0874343290050632
 37.3961334141116737 32.1042930604706669 23.8592929112563326
 37.3961334141116737 32.1042930604706669 26.6311514935075984
 37.3961334141116737 32.1042930604706669 29.4030100757588642
 35.1131222962690401 33.7629977294924046 15.5437171645025316
 35.1131222962690401 33.7629977294924046 18.3155757467538010
 35.1131222962690401 33.7629977294924046 21.0874343290050632
 35.1131222962690401 33.7629977294924046 23.8592929112563326
 35.1131222962690401 33.7629977294924046 26.6311514935075984
 35.1131222962690401 33.7629977294924046 29.4030100757588642
 32.8301111784263995 35.4217023985141424 15.5437171645025316
 32.8301111784263995 35.4217023985141424 18.3155757467538010
 32.8301111784263995 35.4217023985141424 21.0874343290050632
 32.8301111784263995 35.4217023985141424 23.8592929112563326
 32.8301111784263995 35.4217023985141424 26.6311514935075984
 32.8301111784263995 35.4217023985141424 29.4030100757588642
 30.5471000605837588 37.0804070675358801 15.5437171645025316
 30.5471000605837588 37.0804070675358801 18.3155757467538010
 30.5471000605837588 37.0804070675358801 21.0874343290050632
 30.5471000605837588 37.0804070675358801 23.8592929112563326
 30.5471000605837588 37.0804070675358801 26.6311514935075984
 30.5471000605837588 37.0804070675358801 29.4030100757588642
 28.2640889427411182 35.4217023985141424 15.5437171645025316
 28.2640889427411182 35.4217023985141424 18.3155757467538010
 28.2640889427411182 35.4217023985141424 21.0874343290050632
 28.2640889427411182 35.4217023985141424 23.8592929112563326
 28.2640889427411182 35.4217023985141424 26.6311514935075984
 28.2640889427411182 35.4217023985141424 29.4030100757588642
 25.9810778248984811 33.7629977294924117 15.5437171645025316
 25.9810778248984811 33.7629977294924117 18.3155757467538010
 25.9810778248984811 33.7629977294924117 21.0874343290050632
 25.9810778248984811 33.7629977294924117 23.8592929112563326
 25.9810778248984811 33.7629977294924117 26.6311514935075984
 25.9810778248984811 33.7629977294924117 29.4030100757588642
 23.6980667070558404 32.1042930604706740 15.5437171645025316
 23.6980667070558404 32.1042930604706740 18.3155757467538010
 23.6980667070558404 32.1042930604706740 21.0874343290050632
 23.6980667070558404 32.1042930604706740 23.8592929112563326
 23.6980667070558404 32.1042930604706740 26.6311514935075984
 23.6980667070558404 32.1042930604706740 29.4030100757588642
 21.4150555892132033 30.4455883914489362 15.5437171645025316
 21.4150555892132033 30.4455883914489362 18.3155757467538010
 21.4150555892132033 30.4455883914489362 21.0874343290050632
 21.4150555892132033 30.4455883914489362 23.8592929112563326
 21.4150555892132033 30.4455883914489362 26.6311514935075984
 21.4150555892132033 30.4455883914489362 29.4030100757588642
 22.2870882395351977 27.7617478596736227 15.5437171645025316
 22.2870882395351977 27.7617478596736227 18.3155757467538010
 22.2870882395351977 27.7617478596736227 21.0874343290050632
 22.2870882395351977 27.7617478596736227 23.8592929112563326
 22.2870882395351977 27.7617478596736227 26.6311514935075984
 22.2870882395351977 27.7617478596736227 29.4030100757588642
 23.1591208898571921 25.0779073278983091 15.5437171645025316
 23.1591208898571921 25.0779073278983091 18.3155757467538010
 23.1591208898571921 25.0779073278983091 21.0874343290050632
 23.1591208898571921 25.0779073278983091 23.8592929112563326
 23.1591208898571921 25.0779073278983091 26.6311514935075984
 23.1591208898571921 25.0779073278983091 29.4030100757588642
 24.0311535401791900 22.3940667961229956 15.5437171645025316
 24.0311535401791900 22.3940667961229956 18.3155757467538010
 24.0311535401791900 22.3940667961229956 21.0874343290050632
 24.0311535401791900 22.3940667961229956 23.8592929112563326
 24.0311535401791900 22.3940667961229956 26.6311514935075984
 24.0311535401791900 22.3940667961229956 29.4030100757588642
 24.9031861905011880 19.7102262643476820 15.5437171645025316
 24.9031861905011880 19.7102262643476820 18.3155757467538010
 24.9031861905011880 19.7102262643476820 21.0874343290050632
 24.9031861905011880 19.7102262643476820 23.8592929112563326
 24.9031861905011880 19.7102262643476820 26.6311514935075984
 24.9031861905011880 19.7102262643476820 29.4030100757588642
 27.7251431255424734 19.7102262643476820 15.5437171645025316
 27.7251431255424734 19.7102262643476820 18.3155757467538010
 27.7251431255424734 19.7102262643476820 21.0874343290050632
 27.7251431255424734 19.7102262643476820 23.8592929112563326
 27.7251431255424734 19.7102262643476820 26.6311514935075984
 27.7251431255424734 19.7102262643476820 29.4030100757588642
 30.5471000605837588 19.7102262643476820 15.5437171645025316
 30.5471000605837588 19.7102262643476820 18.3155757467538010
 30.5471000605837588 19.7102262643476820 21.0874343290050632
 30.5471000605837588 19.7102262643476820 23.8592929112563326
 30.5471000605837588 19.7102262643476820 26.6311514935075984
 30.5471000605837588 19.7102262643476820 29.4030100757588642
 33.3690569956250442 19.7102262643476820 15.5437171645025316
 33.3690569956250442 19.7102262643476820 18.3155757467538010
 33.3690569956250442 19.7102262643476820 21.0874343290050632
 33.3690569956250442 19.7102262643476820 23.8592929112563326
 33.3690569956250442 19.7102262643476820 26.6311514935075984
 33.3690569956250442 19.7102262643476820 29.4030100757588642
 36.1910139306663297 19.7102262643476820 15.5437171645025316
 36.1910139306663297 19.7102262643476820 18.3155757467538010
 36.1910139306663297 19.7102262643476820 21.0874343290050632
 36.1910139306663297 19.7102262643476820 23.8592929112563326
 36.1910139306663297 19.7102262643476820 26.6311514935075984
 36.1910139306663297 19.7102262643476820 29.4030100757588642
 37.0630465809883276 22.3940667961229920 15.5437171645025316
 37.0630465809883276 22.3940667961229920 18.3155757467538010
 37.0630465809883276 22.3940667961229920 21.0874343290050632
 37.0630465809883276 22.3940667961229920 23.8592929112563326
 37.0630465809883276 22.3940667961229920 26.6311514935075984
 37.0630465809883276 22.3940667961229920 29.4030100757588642
 37.9350792313103256 25.0779073278983091 15.5437171645025316
 37.9350792313103256 25.0779073278983091 18.3155757467538010
 37.9350792313103256 25.0779073278983091 21.0874343290050632
 37.9350792313103256 25.0779073278983091 23.8592929112563326
 37.9350792313103256 25.0779073278983091 26.6311514935075984
 37.9350792313103256 25.0779073278983091 29.4030100757588642
 38.8071118816323235 27.7617478596736191 15.5437171645025316
 38.8071118816323235 27.7617478596736191 18.3155757467538010
 38.8071118816323235 27.7617478596736191 21.0874343290050632
 38.8071118816323235 27.7617478596736191 23.8592929112563326
 38.8071118816323235 27.7617478596736191 26.6311514935075984
 38.8071118816323235 27.7617478596736191 29.4030100757588642
 41.9621556497969550 31.1873836703547127 16.9296464556281663
 41.9621556497969550 31.1873836703547127 19.7015050378794321
 41.9621556497969550 31.1873836703547127 22.4733636201306979
 41.9621556497969550 31.1873836703547127 25.2452222023819637
 41.9621556497969550 31.1873836703547127 28.0170807846332295
 39.6791445319543143 32.8460883393764504 16.9296464556281663
 39.6791445319543143 32.8460883393764504 19.7015050378794321
 39.6791445319543143 32.8460883393764504 22.4733636201306979
 39.6791445319543143 32.8460883393764504 25.2452222023819637
 39.6791445319543143 32.8460883393764504 28.0170807846332295
 37.3961334141116737 34.5047930083981811 16.9296464556281663
 37.3961334141116737 34.5047930083981811 19.7015050378794321
 37.3961334141116737 34.5047930083981811 22.4733636201306979
 37.3961334141116737 34.5047930083981811 25.2452222023819637
 37.3961334141116737 34.5047930083981811 28.0170807846332295
 35.1131222962690401 36.1634976774199188 16.9296464556281663
 35.1131222962690401 36.1634976774199188 19.7015050378794321
 35.1131222962690401 36.1634976774199188 22.4733636201306979
 35.1131222962690401 36.1634976774199188 25.2452222023819637
 35.1131222962690401 36.1634976774199188 28.0170807846332295
 32.8301111784263995 37.8222023464416566 16.9296464556281663
 32.8301111784263995 37.8222023464416566 19.7015050378794321
 32.8301111784263995 37.8222023464416566 22.4733636201306979
 32.8301111784263995 37.8222023464416566 25.2452222023819637
 32.8301111784263995 37.8222023464416566 28.0170807846332295
 30.5471000605837588 39.4809070154633943 16.9296464556281663
 30.5471000605837588 39.4809070154633943 19.7015050378794321
 30.5471000605837588 39.4809070154633943 22.4733636201306979
 30.5471000605837588 39.4809070154633943 25.2452222023819637
 30.5471000605837588 39.4809070154633943 28.0170807846332295
 28.2640889427411182 37.8222023464416566 16.9296464556281663
 28.2640889427411182 37.8222023464416566 19.7015050378794321
 28.2640889427411182 37.8222023464416566 22.4733636201306979
 28.2640889427411182 37.8222023464416566 25.2452222023819637
 28.2640889427411182 37.8222023464416566 28.0170807846332295
 25.9810778248984811 36.1634976774199259 16.9296464556281663
 25.9810778248984811 36.1634976774199259 19.7015050378794321
 25.9810778248984811 36.1634976774199259 22.4733636201306979
 25.9810778248984811 36.1634976774199259 25.2452222023819637
 25.9810778248984811 36.1634976774199259 28.0170807846332295
 23.6980667070558404 34.5047930083981882 16.9296464556281663
 23.6980667070558404 34.5047930083981882 19.7015050378794321
 23.6980667070558404 34.5047930083981882 22.4733636201306979
 23.6980667070558404 34.5047930083981882 25.2452222023819637
 23.6980667070558404 34.5047930083981882 28.0170807846332295
 21.4150555892132033 32.8460883393764504 16.9296464556281663
 21.4150555892132033 32.8460883393764504 19.7015050378794321
 21.4150555892132033 32.8460883393764504 22.4733636201306979
 21.4150555892132033 32.8460883393764504 25.2452222023819637
 21.4150555892132033 32.8460883393764504 28.0170807846332295
 19.1320444713705626 31.1873836703547163 16.9296464556281663
 19.1320444713705626 31.1873836703547163 19.7015050378794321
 19.1320444713705626 31.1873836703547163 22.4733636201306979
 19.1320444713705626 31.1873836703547163 25.2452222023819637
 19.1320444713705626 31.1873836703547163 28.0170807846332295
 20.0040771216925606 28.5035431385794027 16.9296464556281663
 20.0040771216925606 28.5035431385794027 19.7015050378794321
 20.0040771216925606 28.5035431385794027 22.4733636201306979
 20.0040771216925606 28.5035431385794027 25.2452222023819637
 20.0040771216925606 28.5035431385794027 28.0170807846332295
 20.8761097720145550 25.8197026068040891 16.9296464556281663
 20.8761097720145550 25.8197026068040891 19.7015050378794321
 20.8761097720145550 25.8197026068040891 22.4733636201306979
 20.8761097720145550 25.8197026068040891 25.2452222023819637
 20.8761097720145550 25.8197026068040891 28.0170807846332295
 21.7481424223365494 23.1358620750287756 16.9296464556281663
 21.7481424223365494 23.1358620750287756 19.7015050378794321
 21.7481424223365494 23.1358620750287756 22.4733636201306979
 21.7481424223365494 23.1358620750287756 25.2452222023819637
 21.7481424223365494 23.1358620750287756 28.0170807846332295
 22.6201750726585473 20.4520215432534620 16.9296464556281663
 22.6201750726585473 20.4520215432534620 19.7015050378794321
 22.6201750726585473 20.4520215432534620 22.4733636201306979
 22.6201750726585473 20.4520215432534620 25.2452222023819637
 22.6201750726585473 20.4520215432534620 28.0170807846332295
 23.4922077229805453 17.7681810114781484 16.9296464556281663
 23.4922077229805453 17.7681810114781484 19.7015050378794321
 23.4922077229805453 17.7681810114781484 22.4733636201306979
 23.4922077229805453 17.7681810114781484 25.2452222023819637
 23.4922077229805453 17.7681810114781484 28.0170807846332295
 26.3141646580218307 17.7681810114781484 16.9296464556281663
 26.3141646580218307 17.7681810114781484 19.7015050378794321
 26.3141646580218307 17.7681810114781484 22.4733636201306979
 26.3141646580218307 17.7681810114781484 25.2452222023819637
 26.3141646580218307 17.7681810114781484 28.0170807846332295
 29.1361215930631126 17.7681810114781484 16.9296464556281663
 29.1361215930631126 17.7681810114781484 19.7015050378794321
 29.1361215930631126 17.7681810114781484 22.4733636201306979
 29.1361215930631126 17.7681810114781484 25.2452222023819637
 29.1361215930631126 17.7681810114781484 28.0170807846332295
 31.9580785281043980 17.7681810114781449 16.9296464556281663
 31.9580785281043980 17.7681810114781449 19.7015050378794321
 31.9580785281043980 17.7681810114781449 22.4733636201306979
 31.9580785281043980 17.7681810114781449 25.2452222023819637
 31.9580785281043980 17.7681810114781449 28.0170807846332295
 34.7800354631456869 17.7681810114781449 16.9296464556281663
 34.7800354631456869 17.7681810114781449 19.7015050378794321
 34.7800354631456869 17.7681810114781449 22.4733636201306979
 34.7800354631456869 17.7681810114781449 25.2452222023819637
 34.7800354631456869 17.7681810114781449 28.0170807846332295
 37.6019923981869653 17.7681810114781449 16.9296464556281663
 37.6019923981869653 17.7681810114781449 19.7015050378794321
 37.6019923981869653 17.7681810114781449 22.4733636201306979
 37.6019923981869653 17.7681810114781449 25.2452222023819637
 37.6019923981869653 17.7681810114781449 28.0170807846332295
 38.4740250485089632 20.4520215432534584 16.9296464556281663
 38.4740250485089632 20.4520215432534584 19.7015050378794321
 38.4740250485089632 20.4520215432534584 22.4733636201306979
 38.4740250485089632 20.4520215432534584 25.2452222023819637
 38.4740250485089632 20.4520215432534584 28.0170807846332295
 39.3460576988309612 23.1358620750287720 16.9296464556281663
 39.3460576988309612 23.1358620750287720 19.7015050378794321
 39.3460576988309612 23.1358620750287720 22.4733636201306979
 39.3460576988309612 23.1358620750287720 25.2452222023819637
 39.3460576988309612 23.1358620750287720 28.0170807846332295
 40.2180903491529591 25.8197026068040856 16.9296464556281663
 40.2180903491529591 25.8197026068040856 19.7015050378794321
 40.2180903491529591 25.8197026068040856 22.4733636201306979
 40.2180903491529591 25.8197026068040856 25.2452222023819637
 40.2180903491529591 25.8197026068040856 28.0170807846332295
 41.0901229994749571 28.5035431385793991 16.9296464556281663
 41.0901229994749571 28.5035431385793991 19.7015050378794321
 41.0901229994749571 28.5035431385793991 22.4733636201306979
 41.0901229994749571 28.5035431385793991 25.2452222023819637
 41.0901229994749571 28.5035431385793991 28.0170807846332295
 44.2451667676395957 31.9291789492604892 18.3155757467537974
 44.2451667676395957 31.9291789492604892 21.0874343290050632