Au 
 1.0000000000000000
    55.5105078540442491    0.0000000000000000    0.0000000000000000
     0.0000000000000000   53.7724998915390202    0.0000000000000000
     0.0000000000000000    0.0000000000000000   48.8499566724111389
 Au 
 831
Cartesian
 27.7552539270221246 28.1918116544309569 10.0000000000000000
 27.7552539270221246 28.1918116544309569 12.8849956672411139
 27.7552539270221246 28.1918116544309569 15.7699913344822278
 27.7552539270221246 28.1918116544309569 18.6549870017233417
 27.7552539270221246 28.1918116544309569 21.5399826689644556
 27.7552539270221246 28.1918116544309569 24.4249783362055695
 27.7552539270221246 28.1918116544309569 27.3099740034466834
 27.7552539270221246 28.1918116544309569 30.1949696706877972
 27.7552539270221246 28.1918116544309569 33.0799653379289111
 27.7552539270221246 28.1918116544309569 35.9649610051700250
 27.7552539270221246 28.1918116544309569 38.8499566724111389
 30.1314491721236486 28.9638842916594186 11.4424978336205569
 30.1314491721236486 28.9638842916594186 14.3274935008616708
 30.1314491721236486 28.9638842916594186 17.2124891681027847
 30.1314491721236486 28.9638842916594186 20.0974848353438986
 30.1314491721236486 28.9638842916594186 22.9824805025850125
 30.1314491721236486 28.9638842916594186 25.8674761698261264
 30.1314491721236486 28.9638842916594186 28.7524718370672403
 30.1314491721236486 28.9638842916594186 31.6374675043083542
 30.1314491721236486 28.9638842916594186 34.5224631715494681
 30.1314491721236486 28.9638842916594186 37.4074588387905820
 27.7552539270221246 30.6902911920698003 11.4424978336205569
 27.7552539270221246 30.6902911920698003 14.3274935008616708
 27.7552539270221246 30.6902911920698003 17.2124891681027847
 27.7552539270221246 30.6902911920698003 20.0974848353438986
 27.7552539270221246 30.6902911920698003 22.9824805025850125
 27.7552539270221246 30.6902911920698003 25.8674761698261264
 27.7552539270221246 30.6902911920698003 28.7524718370672403
 27.7552539270221246 30.6902911920698003 31.6374675043083542
 27.7552539270221246 30.6902911920698003 34.5224631715494681
 27.7552539270221246 30.6902911920698003 37.4074588387905820
 25.3790586819206005 28.9638842916594186 11.4424978336205569
 25.3790586819206005 28.9638842916594186 14.3274935008616708
 25.3790586819206005 28.9638842916594186 17.2124891681027847
 25.3790586819206005 28.9638842916594186 20.0974848353438986
 25.3790586819206005 28.9638842916594186 22.9824805025850125
 25.3790586819206005 28.9638842916594186 25.8674761698261264
 25.3790586819206005 28.9638842916594186 28.7524718370672403
 25.3790586819206005 28.9638842916594186 31.6374675043083542
 25.3790586819206005 28.9638842916594186 34.5224631715494681
 25.3790586819206005 28.9638842916594186 37.4074588387905820
 26.2866845016434958 26.1704992483830736 11.4424978336205569
 26.2866845016434958 26.1704992483830736 14.3274935008616708
 26.2866845016434958 26.1704992483830736 17.2124891681027847
 26.2866845016434958 26.1704992483830736 20.0974848353438986
 26.2866845016434958 26.1704992483830736 22.9824805025850125
 26.2866845016434958 26.1704992483830736 25.8674761698261264
 26.2866845016434958 26.1704992483830736 28.7524718370672403
 26.2866845016434958 26.1704992483830736 31.6374675043083542
 26.2866845016434958 26.1704992483830736 34.5224631715494681
 26.2866845016434958 26.1704992483830736 37.4074588387905820
 29.2238233524007534 26.1704992483830736 11.4424978336205569
 29.2238233524007534 26.1704992483830736 14.3274935008616708
 29.2238233524007534 26.1704992483830736 17.2124891681027847
 29.2238233524007534 26.1704992483830736 20.0974848353438986
 29.2238233524007534 26.1704992483830736 22.9824805025850125
 29.2238233524007534 26.1704992483830736 25.8674761698261264
 29.2238233524007534 26.1704992483830736 28.7524718370672403
 29.2238233524007534 26.1704992483830736 31.6374675043083542
 29.2238233524007534 26.1704992483830736 34.5224631715494681
 29.2238233524007534 26.1704992483830736 37.4074588387905820
 32.5076444172251726 29.7359569288878802 12.8849956672411139
 32.5076444172251726 29.7359569288878802 15.7699913344822278
 32.5076444172251726 29.7359569288878802 18.6549870017233417
 32.5076444172251726 29.7359569288878802 21.5399826689644556
 32.5076444172251726 29.7359569288878802 24.4249783362055695
 32.5076444172251726 29.7359569288878802 27.3099740034466834
 32.5076444172251726 29.7359569288878802 30.1949696706877972
 32.5076444172251726 29.7359569288878802 33.0799653379289111
 32.5076444172251726 29.7359569288878802 35.9649610051700250
 30.1314491721236486 31.4623638292982619 12.8849956672411139
 30.1314491721236486 31.4623638292982619 15.7699913344822278
 30.1314491721236486 31.4623638292982619 18.6549870017233417
 30.1314491721236486 31.4623638292982619 21.5399826689644556
 30.1314491721236486 31.4623638292982619 24.4249783362055695
 30.1314491721236486 31.4623638292982619 27.3099740034466834
 30.1314491721236486 31.4623638292982619 30.1949696706877972
 30.1314491721236486 31.4623638292982619 33.0799653379289111
 30.1314491721236486 31.4623638292982619 35.9649610051700250
 27.7552539270221246 33.1887707297086365 12.8849956672411139
 27.7552539270221246 33.1887707297086365 15.7699913344822278
 27.7552539270221246 33.1887707297086365 18.6549870017233417
 27.7552539270221246 33.1887707297086365 21.5399826689644556
 27.7552539270221246 33.1887707297086365 24.4249783362055695
 27.7552539270221246 33.1887707297086365 27.3099740034466834
 27.7552539270221246 33.1887707297086365 30.1949696706877972
 27.7552539270221246 33.1887707297086365 33.0799653379289111
 27.7552539270221246 33.1887707297086365 35.9649610051700250
 25.3790586819206005 31.4623638292982619 12.8849956672411139
 25.3790586819206005 31.4623638292982619 15.7699913344822278
 25.3790586819206005 31.4623638292982619 18.6549870017233417
 25.3790586819206005 31.4623638292982619 21.5399826689644556
 25.3790586819206005 31.4623638292982619 24.4249783362055695
 25.3790586819206005 31.4623638292982619 27.3099740034466834
 25.3790586819206005 31.4623638292982619 30.1949696706877972
 25.3790586819206005 31.4623638292982619 33.0799653379289111
 25.3790586819206005 31.4623638292982619 35.9649610051700250
 23.0028634368190801 29.7359569288878838 12.8849956672411139
 23.0028634368190801 29.7359569288878838 15.7699913344822278
 23.0028634368190801 29.7359569288878838 18.6549870017233417
 23.0028634368190801 29.7359569288878838 21.5399826689644556
 23.0028634368190801 29.7359569288878838 24.4249783362055695
 23.0028634368190801 29.7359569288878838 27.3099740034466834
 23.0028634368190801 29.7359569288878838 30.1949696706877972
 23.0028634368190801 29.7359569288878838 33.0799653379289111
 23.0028634368190801 29.7359569288878838 35.9649610051700250
 23.9104892565419718 26.9425718856115353 12.8849956672411139
 23.9104892565419718 26.9425718856115353 15.7699913344822278
 23.9104892565419718 26.9425718856115353 18.6549870017233417
 23.9104892565419718 26.9425718856115353 21.5399826689644556
 23.9104892565419718 26.9425718856115353 24.4249783362055695
 23.9104892565419718 26.9425718856115353 27.3099740034466834
 23.9104892565419718 26.9425718856115353 30.1949696706877972
 23.9104892565419718 26.9425718856115353 33.0799653379289111
 23.9104892565419718 26.9425718856115353 35.9649610051700250
 24.8181150762648670 24.1491868423351903 12.8849956672411139
 24.8181150762648670 24.1491868423351903 15.7699913344822278
 24.8181150762648670 24.1491868423351903 18.6549870017233417
 24.8181150762648670 24.1491868423351903 21.5399826689644556
 24.8181150762648670 24.1491868423351903 24.4249783362055695
 24.8181150762648670 24.1491868423351903 27.3099740034466834
 24.8181150762648670 24.1491868423351903 30.1949696706877972
 24.8181150762648670 24.1491868423351903 33.0799653379289111
 24.8181150762648670 24.1491868423351903 35.9649610051700250
 27.7552539270221246 24.1491868423351903 12.8849956672411139
 27.7552539270221246 24.1491868423351903 15.7699913344822278
 27.7552539270221246 24.1491868423351903 18.6549870017233417
 27.7552539270221246 24.1491868423351903 21.5399826689644556
 27.7552539270221246 24.1491868423351903 24.4249783362055695
 27.7552539270221246 24.1491868423351903 27.3099740034466834
 27.7552539270221246 24.1491868423351903 30.1949696706877972
 27.7552539270221246 24.1491868423351903 33.0799653379289111
 27.7552539270221246 24.1491868423351903 35.9649610051700250
 30.6923927777793786 24.1491868423351903 12.8849956672411139
 30.6923927777793786 24.1491868423351903 15.7699913344822278
 30.6923927777793786 24.1491868423351903 18.6549870017233417
 30.6923927777793786 24.1491868423351903 21.5399826689644556
 30.6923927777793786 24.1491868423351903 24.4249783362055695
 30.6923927777793786 24.1491868423351903 27.3099740034466834
 30.6923927777793786 24.1491868423351903 30.1949696706877972
 30.6923927777793786 24.1491868423351903 33.0799653379289111
 30.6923927777793786 24.1491868423351903 35.9649610051700250
 31.6000185975022738 26.9425718856115353 12.8849956672411139
 31.6000185975022738 26.9425718856115353 15.7699913344822278
 31.6000185975022738 26.9425718856115353 18.6549870017233417
 31.6000185975022738 26.9425718856115353 21.5399826689644556
 31.6000185975022738 26.9425718856115353 24.4249783362055695
 31.6000185975022738 26.9425718856115353 27.3099740034466834
 31.6000185975022738 26.9425718856115353 30.1949696706877972
 31.6000185975022738 26.9425718856115353 33.0799653379289111
 31.6000185975022738 26.9425718856115353 35.9649610051700250
 34.8838396623266931 30.5080295661163454 14.3274935008616708
 34.8838396623266931 30.5080295661163454 17.2124891681027847
 34.8838396623266931 30.5080295661163454 20.0974848353438986
 34.8838396623266931 30.5080295661163454 22.9824805025850125
 34.8838396623266931 30.5080295661163454 25.8674761698261264
 34.8838396623266931 30.5080295661163454 28.7524718370672403
 34.8838396623266931 30.5080295661163454 31.6374675043083542
 34.8838396623266931 30.5080295661163454 34.5224631715494681
 32.5076444172251726 32.2344364665267236 14.3274935008616708
 32.5076444172251726 32.2344364665267236 17.2124891681027847
 32.5076444172251726 32.2344364665267236 20.0974848353438986
 32.5076444172251726 32.2344364665267236 22.9824805025850125
 32.5076444172251726 32.2344364665267236 25.8674761698261264
 32.5076444172251726 32.2344364665267236 28.7524718370672403
 32.5076444172251726 32.2344364665267236 31.6374675043083542
 32.5076444172251726 32.2344364665267236 34.5224631715494681
 30.1314491721236486 33.9608433669371053 14.3274935008616708
 30.1314491721236486 33.9608433669371053 17.2124891681027847
 30.1314491721236486 33.9608433669371053 20.0974848353438986
 30.1314491721236486 33.9608433669371053 22.9824805025850125
 30.1314491721236486 33.9608433669371053 25.8674761698261264
 30.1314491721236486 33.9608433669371053 28.7524718370672403
 30.1314491721236486 33.9608433669371053 31.6374675043083542
 30.1314491721236486 33.9608433669371053 34.5224631715494681
 27.7552539270221246 35.6872502673474798 14.3274935008616708
 27.7552539270221246 35.6872502673474798 17.2124891681027847
 27.7552539270221246 35.6872502673474798 20.0974848353438986
 27.7552539270221246 35.6872502673474798 22.9824805025850125
 27.7552539270221246 35.6872502673474798 25.8674761698261264
 27.7552539270221246 35.6872502673474798 28.7524718370672403
 27.7552539270221246 35.6872502673474798 31.6374675043083542
 27.7552539270221246 35.6872502673474798 34.5224631715494681
 25.3790586819206041 33.9608433669371053 14.3274935008616708
 25.3790586819206041 33.9608433669371053 17.2124891681027847
 25.3790586819206041 33.9608433669371053 20.0974848353438986
 25.3790586819206041 33.9608433669371053 22.9824805025850125
 25.3790586819206041 33.9608433669371053 25.8674761698261264
 25.3790586819206041 33.9608433669371053 28.7524718370672403
 25.3790586819206041 33.9608433669371053 31.6374675043083542
 25.3790586819206041 33.9608433669371053 34.5224631715494681
 23.0028634368190801 32.2344364665267236 14.3274935008616708
 23.0028634368190801 32.2344364665267236 17.2124891681027847
 23.0028634368190801 32.2344364665267236 20.0974848353438986
 23.0028634368190801 32.2344364665267236 22.9824805025850125
 23.0028634368190801 32.2344364665267236 25.8674761698261264
 23.0028634368190801 32.2344364665267236 28.7524718370672403
 23.0028634368190801 32.2344364665267236 31.6374675043083542
 23.0028634368190801 32.2344364665267236 34.5224631715494681
 20.6266681917175561 30.5080295661163454 14.3274935008616708
 20.6266681917175561 30.5080295661163454 17.2124891681027847
 20.6266681917175561 30.5080295661163454 20.0974848353438986
 20.6266681917175561 30.5080295661163454 22.9824805025850125
 20.6266681917175561 30.5080295661163454 25.8674761698261264
 20.6266681917175561 30.5080295661163454 28.7524718370672403
 20.6266681917175561 30.5080295661163454 31.6374675043083542
 20.6266681917175561 30.5080295661163454 34.5224631715494681
 21.5342940114404513 27.7146445228400005 14.3274935008616708
 21.5342940114404513 27.7146445228400005 17.2124891681027847
 21.5342940114404513 27.7146445228400005 20.0974848353438986
 21.5342940114404513 27.7146445228400005 22.9824805025850125
 21.5342940114404513 27.7146445228400005 25.8674761698261264
 21.5342940114404513 27.7146445228400005 28.7524718370672403
 21.5342940114404513 27.7146445228400005 31.6374675043083542
 21.5342940114404513 27.7146445228400005 34.5224631715494681
 22.4419198311633465 24.9212594795636520 14.3274935008616708
 22.4419198311633465 24.9212594795636520 17.2124891681027847
 22.4419198311633465 24.9212594795636520 20.0974848353438986
 22.4419198311633465 24.9212594795636520 22.9824805025850125
 22.4419198311633465 24.9212594795636520 25.8674761698261264
 22.4419198311633465 24.9212594795636520 28.7524718370672403
 22.4419198311633465 24.9212594795636520 31.6374675043083542
 22.4419198311633465 24.9212594795636520 34.5224631715494681
 23.3495456508862418 22.1278744362873070 14.3274935008616708
 23.3495456508862418 22.1278744362873070 17.2124891681027847
 23.3495456508862418 22.1278744362873070 20.0974848353438986
 23.3495456508862418 22.1278744362873070 22.9824805025850125
 23.3495456508862418 22.1278744362873070 25.8674761698261264
 23.3495456508862418 22.1278744362873070 28.7524718370672403
 23.3495456508862418 22.1278744362873070 31.6374675043083542
 23.3495456508862418 22.1278744362873070 34.5224631715494681
 26.2866845016434958 22.1278744362873070 14.3274935008616708
 26.2866845016434958 22.1278744362873070 17.2124891681027847
 26.2866845016434958 22.1278744362873070 20.0974848353438986
 26.2866845016434958 22.1278744362873070 22.9824805025850125
 26.2866845016434958 22.1278744362873070 25.8674761698261264
 26.2866845016434958 22.1278744362873070 28.7524718370672403
 26.2866845016434958 22.1278744362873070 31.6374675043083542
 26.2866845016434958 22.1278744362873070 34.5224631715494681
 29.2238233524007498 22.1278744362873070 14.3274935008616708
 29.2238233524007498 22.1278744362873070 17.2124891681027847
 29.2238233524007498 22.1278744362873070 20.0974848353438986
 29.2238233524007498 22.1278744362873070 22.9824805025850125
 29.2238233524007498 22.1278744362873070 25.8674761698261264
 29.2238233524007498 22.1278744362873070 28.7524718370672403
 29.2238233524007498 22.1278744362873070 31.6374675043083542
 29.2238233524007498 22.1278744362873070 34.5224631715494681
 32.1609622031580074 22.1278744362873034 14.3274935008616708
 32.1609622031580074 22.1278744362873034 17.2124891681027847
 32.1609622031580074 22.1278744362873034 20.0974848353438986
 32.1609622031580074 22.1278744362873034 22.9824805025850125
 32.1609622031580074 22.1278744362873034 25.8674761698261264
 32.1609622031580074 22.1278744362873034 28.7524718370672403
 32.1609622031580074 22.1278744362873034 31.6374675043083542
 32.1609622031580074 22.1278744362873034 34.5224631715494681
 33.0685880228809026 24.9212594795636520 14.3274935008616708
 33.0685880228809026 24.9212594795636520 17.2124891681027847
 33.0685880228809026 24.9212594795636520 20.0974848353438986
 33.0685880228809026 24.9212594795636520 22.9824805025850125
 33.0685880228809026 24.9212594795636520 25.8674761698261264
 33.0685880228809026 24.9212594795636520 28.7524718370672403
 33.0685880228809026 24.9212594795636520 31.6374675043083542
 33.0685880228809026 24.9212594795636520 34.5224631715494681
 33.9762138426037978 27.7146445228399969 14.3274935008616708
 33.9762138426037978 27.7146445228399969 17.2124891681027847
 33.9762138426037978 27.7146445228399969 20.0974848353438986
 33.9762138426037978 27.7146445228399969 22.9824805025850125
 33.9762138426037978 27.7146445228399969 25.8674761698261264
 33.9762138426037978 27.7146445228399969 28.7524718370672403
 33.9762138426037978 27.7146445228399969 31.6374675043083542
 33.9762138426037978 27.7146445228399969 34.5224631715494681
 37.2600349074282136 31.2801022033448071 15.7699913344822278
 37.2600349074282136 31.2801022033448071 18.6549870017233417
 37.2600349074282136 31.2801022033448071 21.5399826689644556
 37.2600349074282136 31.2801022033448071 24.4249783362055695
 37.2600349074282136 31.2801022033448071 27.3099740034466834
 37.2600349074282136 31.2801022033448071 30.1949696706877972
 37.2600349074282136 31.2801022033448071 33.0799653379289111
 34.8838396623266931 33.0065091037551852 15.7699913344822278
 34.8838396623266931 33.0065091037551852 18.6549870017233417
 34.8838396623266931 33.0065091037551852 21.5399826689644556
 34.8838396623266931 33.0065091037551852 24.4249783362055695
 34.8838396623266931 33.0065091037551852 27.3099740034466834
 34.8838396623266931 33.0065091037551852 30.1949696706877972
 34.8838396623266931 33.0065091037551852 33.0799653379289111
 32.5076444172251726 34.7329160041655669 15.7699913344822278
 32.5076444172251726 34.7329160041655669 18.6549870017233417
 32.5076444172251726 34.7329160041655669 21.5399826689644556
 32.5076444172251726 34.7329160041655669 24.4249783362055695
 32.5076444172251726 34.7329160041655669 27.3099740034466834
 32.5076444172251726 34.7329160041655669 30.1949696706877972
 32.5076444172251726 34.7329160041655669 33.0799653379289111
 30.1314491721236486 36.4593229045759415 15.7699913344822278
 30.1314491721236486 36.4593229045759415 18.6549870017233417
 30.1314491721236486 36.4593229045759415 21.5399826689644556
 30.1314491721236486 36.4593229045759415 24.4249783362055695
 30.1314491721236486 36.4593229045759415 27.3099740034466834
 30.1314491721236486 36.4593229045759415 30.1949696706877972
 30.1314491721236486 36.4593229045759415 33.0799653379289111
 27.7552539270221246 38.1857298049863232 15.7699913344822278
 27.7552539270221246 38.1857298049863232 18.6549870017233417
 27.7552539270221246 38.1857298049863232 21.5399826689644556
 27.7552539270221246 38.1857298049863232 24.4249783362055695
 27.7552539270221246 38.1857298049863232 27.3099740034466834
 27.7552539270221246 38.1857298049863232 30.1949696706877972
 27.7552539270221246 38.1857298049863232 33.0799653379289111
 25.3790586819206041 36.4593229045759415 15.7699913344822278
 25.3790586819206041 36.4593229045759415 18.6549870017233417
 25.3790586819206041 36.4593229045759415 21.5399826689644556
 25.3790586819206041 36.4593229045759415 24.4249783362055695
 25.3790586819206041 36.4593229045759415 27.3099740034466834
 25.3790586819206041 36.4593229045759415 30.1949696706877972
 25.3790586819206041 36.4593229045759415 33.0799653379289111
 23.0028634368190801 34.7329160041655669 15.7699913344822278
 23.0028634368190801 34.7329160041655669 18.6549870017233417
 23.0028634368190801 34.7329160041655669 21.5399826689644556
 23.0028634368190801 34.7329160041655669 24.4249783362055695
 23.0028634368190801 34.7329160041655669 27.3099740034466834
 23.0028634368190801 34.7329160041655669 30.1949696706877972
 23.0028634368190801 34.7329160041655669 33.0799653379289111
 20.6266681917175561 33.0065091037551923 15.7699913344822278
 20.6266681917175561 33.0065091037551923 18.6549870017233417
 20.6266681917175561 33.0065091037551923 21.5399826689644556
 20.6266681917175561 33.0065091037551923 24.4249783362055695
 20.6266681917175561 33.0065091037551923 27.3099740034466834
 20.6266681917175561 33.0065091037551923 30.1949696706877972
 20.6266681917175561 33.0065091037551923 33.0799653379289111
 18.2504729466160356 31.2801022033448106 15.7699913344822278
 18.2504729466160356 31.2801022033448106 18.6549870017233417
 18.2504729466160356 31.2801022033448106 21.5399826689644556
 18.2504729466160356 31.2801022033448106 24.4249783362055695
 18.2504729466160356 31.2801022033448106 27.3099740034466834
 18.2504729466160356 31.2801022033448106 30.1949696706877972
 18.2504729466160356 31.2801022033448106 33.0799653379289111
 19.1580987663389273 28.4867171600684621 15.7699913344822278
 19.1580987663389273 28.4867171600684621 18.6549870017233417
 19.1580987663389273 28.4867171600684621 21.5399826689644556
 19.1580987663389273 28.4867171600684621 24.4249783362055695
 19.1580987663389273 28.4867171600684621 27.3099740034466834
 19.1580987663389273 28.4867171600684621 30.1949696706877972
 19.1580987663389273 28.4867171600684621 33.0799653379289111
 20.0657245860618225 25.6933321167921171 15.7699913344822278
 20.0657245860618225 25.6933321167921171 18.6549870017233417
 20.0657245860618225 25.6933321167921171 21.5399826689644556
 20.0657245860618225 25.6933321167921171 24.4249783362055695
 20.0657245860618225 25.6933321167921171 27.3099740034466834
 20.0657245860618225 25.6933321167921171 30.1949696706877972
 20.0657245860618225 25.6933321167921171 33.0799653379289111
 20.9733504057847178 22.8999470735157686 15.7699913344822278
 20.9733504057847178 22.8999470735157686 18.6549870017233417
 20.9733504057847178 22.8999470735157686 21.5399826689644556
 20.9733504057847178 22.8999470735157686 24.4249783362055695
 20.9733504057847178 22.8999470735157686 27.3099740034466834
 20.9733504057847178 22.8999470735157686 30.1949696706877972
 20.9733504057847178 22.8999470735157686 33.0799653379289111
 21.8809762255076095 20.1065620302394237 15.7699913344822278
 21.8809762255076095 20.1065620302394237 18.6549870017233417
 21.8809762255076095 20.1065620302394237 21.5399826689644556
 21.8809762255076095 20.1065620302394237 24.4249783362055695
 21.8809762255076095 20.1065620302394237 27.3099740034466834
 21.8809762255076095 20.1065620302394237 30.1949696706877972
 21.8809762255076095 20.1065620302394237 33.0799653379289111
 24.8181150762648670 20.1065620302394201 15.7699913344822278
 24.8181150762648670 20.1065620302394201 18.6549870017233417
 24.8181150762648670 20.1065620302394201 21.5399826689644556
 24.8181150762648670 20.1065620302394201 24.4249783362055695
 24.8181150762648670 20.1065620302394201 27.3099740034466834
 24.8181150762648670 20.1065620302394201 30.1949696706877972
 24.8181150762648670 20.1065620302394201 33.0799653379289111
 27.7552539270221246 20.1065620302394201 15.7699913344822278
 27.7552539270221246 20.1065620302394201 18.6549870017233417
 27.7552539270221246 20.1065620302394201 21.5399826689644556
 27.7552539270221246 20.1065620302394201 24.4249783362055695
 27.7552539270221246 20.1065620302394201 27.3099740034466834
 27.7552539270221246 20.1065620302394201 30.1949696706877972
 27.7552539270221246 20.1065620302394201 33.0799653379289111
 30.6923927777793786 20.1065620302394201 15.7699913344822278
 30.6923927777793786 20.1065620302394201 18.6549870017233417
 30.6923927777793786 20.1065620302394201 21.5399826689644556
 30.6923927777793786 20.1065620302394201 24.4249783362055695
 30.6923927777793786 20.1065620302394201 27.3099740034466834
 30.6923927777793786 20.1065620302394201 30.1949696706877972
 30.6923927777793786 20.1065620302394201 33.0799653379289111
 33.6295316285366326 20.1065620302394201 15.7699913344822278
 33.6295316285366326 20.1065620302394201 18.6549870017233417
 33.6295316285366326 20.1065620302394201 21.5399826689644556
 33.6295316285366326 20.1065620302394201 24.4249783362055695
 33.6295316285366326 20.1065620302394201 27.3099740034466834
 33.6295316285366326 20.1065620302394201 30.1949696706877972
 33.6295316285366326 20.1065620302394201 33.0799653379289111
 34.5371574482595278 22.8999470735157686 15.7699913344822278
 34.5371574482595278 22.8999470735157686 18.6549870017233417
 34.5371574482595278 22.8999470735157686 21.5399826689644556
 34.5371574482595278 22.8999470735157686 24.4249783362055695
 34.5371574482595278 22.8999470735157686 27.3099740034466834
 34.5371574482595278 22.8999470735157686 30.1949696706877972
 34.5371574482595278 22.8999470735157686 33.0799653379289111
 35.4447832679824231 25.6933321167921136 15.7699913344822278
 35.4447832679824231 25.6933321167921136 18.6549870017233417
 35.4447832679824231 25.6933321167921136 21.5399826689644556
 35.4447832679824231 25.6933321167921136 24.4249783362055695
 35.4447832679824231 25.6933321167921136 27.3099740034466834
 35.4447832679824231 25.6933321167921136 30.1949696706877972
 35.4447832679824231 25.6933321167921136 33.0799653379289111
 36.3524090877053183 28.4867171600684586 15.7699913344822278
 36.3524090877053183 28.4867171600684586 18.6549870017233417
 36.3524090877053183 28.4867171600684586 21.5399826689644556
 36.3524090877053183 28.4867171600684586 24.4249783362055695
 36.3524090877053183 28.4867171600684586 27.3099740034466834
 36.3524090877053183 28.4867171600684586 30.1949696706877972
 36.3524090877053183 28.4867171600684586 33.0799653379289111
 39.6362301525297340 32.0521748405732723 17.2124891681027847
 39.6362301525297340 32.0521748405732723 20.0974848353438986
 39.6362301525297340 32.0521748405732723 22.9824805025850125
 39.6362301525297340 32.0521748405732723 25.8674761698261264
 39.6362301525297340 32.0521748405732723 28.7524718370672403
 39.6362301525297340 32.0521748405732723 31.6374675043083542
 37.2600349074282136 33.7785817409836469 17.2124891681027847
 37.2600349074282136 33.7785817409836469 20.0974848353438986
 37.2600349074282136 33.7785817409836469 22.9824805025850125
 37.2600349074282136 33.7785817409836469 25.8674761698261264
 37.2600349074282136 33.7785817409836469 28.7524718370672403
 37.2600349074282136 33.7785817409836469 31.6374675043083542
 34.8838396623266931 35.5049886413940285 17.2124891681027847
 34.8838396623266931 35.5049886413940285 20.0974848353438986
 34.8838396623266931 35.5049886413940285 22.9824805025850125
 34.8838396623266931 35.5049886413940285 25.8674761698261264
 34.8838396623266931 35.5049886413940285 28.7524718370672403
 34.8838396623266931 35.5049886413940285 31.6374675043083542
 32.5076444172251726 37.2313955418044031 17.2124891681027847
 32.5076444172251726 37.2313955418044031 20.0974848353438986
 32.5076444172251726 37.2313955418044031 22.9824805025850125
 32.5076444172251726 37.2313955418044031 25.8674761698261264
 32.5076444172251726 37.2313955418044031 28.7524718370672403
 32.5076444172251726 37.2313955418044031 31.6374675043083542
 30.1314491721236486 38.9578024422147848 17.2124891681027847
 30.1314491721236486 38.9578024422147848 20.0974848353438986
 30.1314491721236486 38.9578024422147848 22.9824805025850125
 30.1314491721236486 38.9578024422147848 25.8674761698261264
 30.1314491721236486 38.9578024422147848 28.7524718370672403
 30.1314491721236486 38.9578024422147848 31.6374675043083542
 27.7552539270221246 40.6842093426251665 17.2124891681027847
 27.7552539270221246 40.6842093426251665 20.0974848353438986
 27.7552539270221246 40.6842093426251665 22.9824805025850125
 27.7552539270221246 40.6842093426251665 25.8674761698261264
 27.7552539270221246 40.6842093426251665 28.7524718370672403
 27.7552539270221246 40.6842093426251665 31.6374675043083542
 25.3790586819206041 38.9578024422147848 17.2124891681027847
 25.3790586819206041 38.9578024422147848 20.0974848353438986
 25.3790586819206041 38.9578024422147848 22.9824805025850125
 25.3790586819206041 38.9578024422147848 25.8674761698261264
 25.3790586819206041 38.9578024422147848 28.7524718370672403
 25.3790586819206041 38.9578024422147848 31.6374675043083542
 23.0028634368190801 37.2313955418044102 17.2124891681027847
 23.0028634368190801 37.2313955418044102 20.0974848353438986
 23.0028634368190801 37.2313955418044102 22.9824805025850125
 23.0028634368190801 37.2313955418044102 25.8674761698261264
 23.0028634368190801 37.2313955418044102 28.7524718370672403
 23.0028634368190801 37.2313955418044102 31.6374675043083542
 20.6266681917175561 35.5049886413940285 17.2124891681027847
 20.6266681917175561 35.5049886413940285 20.0974848353438986
 20.6266681917175561 35.5049886413940285 22.9824805025850125
 20.6266681917175561 35.5049886413940285 25.8674761698261264
 20.6266681917175561 35.5049886413940285 28.7524718370672403
 20.6266681917175561 35.5049886413940285 31.6374675043083542
 18.2504729466160356 33.7785817409836540 17.2124891681027847
 18.2504729466160356 33.7785817409836540 20.0974848353438986
 18.2504729466160356 33.7785817409836540 22.9824805025850125
 18.2504729466160356 33.7785817409836540 25.8674761698261264
 18.2504729466160356 33.7785817409836540 28.7524718370672403
 18.2504729466160356 33.7785817409836540 31.6374675043083542
 15.8742777015145116 32.0521748405732723 17.2124891681027847
 15.8742777015145116 32.0521748405732723 20.0974848353438986
 15.8742777015145116 32.0521748405732723 22.9824805025850125
 15.8742777015145116 32.0521748405732723 25.8674761698261264
 15.8742777015145116 32.0521748405732723 28.7524718370672403
 15.8742777015145116 32.0521748405732723 31.6374675043083542
 16.7819035212374033 29.2587897972969273 17.2124891681027847
 16.7819035212374033 29.2587897972969273 20.0974848353438986
 16.7819035212374033 29.2587897972969273 22.9824805025850125
 16.7819035212374033 29.2587897972969273 25.8674761698261264
 16.7819035212374033 29.2587897972969273 28.7524718370672403
 16.7819035212374033 29.2587897972969273 31.6374675043083542
 17.6895293409602985 26.4654047540205788 17.2124891681027847
 17.6895293409602985 26.4654047540205788 20.0974848353438986
 17.6895293409602985 26.4654047540205788 22.9824805025850125
 17.6895293409602985 26.4654047540205788 25.8674761698261264