Pt 
 1.0000000000000000
    41.0860458777823965    0.0000000000000000    0.0000000000000000
     0.0000000000000000   40.0540213349635152    0.0000000000000000
     0.0000000000000000    0.0000000000000000   36.6311514935076019
 Pt 
 247
Cartesian
 20.5430229388911982 19.7102262643476820 10.0000000000000018
 20.5430229388911982 19.7102262643476820 12.7718585822512676
 20.5430229388911982 19.7102262643476820 15.5437171645025352
 20.5430229388911982 19.7102262643476820 18.3155757467538010
 20.5430229388911982 19.7102262643476820 21.0874343290050668
 20.5430229388911982 19.7102262643476820 23.8592929112563326
 20.5430229388911982 19.7102262643476820 26.6311514935076019
 22.8260340567338389 20.4520215432534584 11.3859292911256347
 22.8260340567338389 20.4520215432534584 14.1577878733769023
 22.8260340567338389 20.4520215432534584 16.9296464556281663
 22.8260340567338389 20.4520215432534584 19.7015050378794356
 22.8260340567338389 20.4520215432534584 22.4733636201307014
 22.8260340567338389 20.4520215432534584 25.2452222023819672
 20.5430229388911982 22.1107262122751962 11.3859292911256347
 20.5430229388911982 22.1107262122751962 14.1577878733769023
 20.5430229388911982 22.1107262122751962 16.9296464556281663
 20.5430229388911982 22.1107262122751962 19.7015050378794356
 20.5430229388911982 22.1107262122751962 22.4733636201307014
 20.5430229388911982 22.1107262122751962 25.2452222023819672
 18.2600118210485576 20.4520215432534620 11.3859292911256347
 18.2600118210485576 20.4520215432534620 14.1577878733769023
 18.2600118210485576 20.4520215432534620 16.9296464556281663
 18.2600118210485576 20.4520215432534620 19.7015050378794356
 18.2600118210485576 20.4520215432534620 22.4733636201307014
 18.2600118210485576 20.4520215432534620 25.2452222023819672
 19.1320444713705555 17.7681810114781484 11.3859292911256347
 19.1320444713705555 17.7681810114781484 14.1577878733769023
 19.1320444713705555 17.7681810114781484 16.9296464556281663
 19.1320444713705555 17.7681810114781484 19.7015050378794356
 19.1320444713705555 17.7681810114781484 22.4733636201307014
 19.1320444713705555 17.7681810114781484 25.2452222023819672
 21.9540014064118409 17.7681810114781449 11.3859292911256347
 21.9540014064118409 17.7681810114781449 14.1577878733769023
 21.9540014064118409 17.7681810114781449 16.9296464556281663
 21.9540014064118409 17.7681810114781449 19.7015050378794356
 21.9540014064118409 17.7681810114781449 22.4733636201307014
 21.9540014064118409 17.7681810114781449 25.2452222023819672
 25.1090451745764760 21.1938168221592385 12.7718585822512694
 25.1090451745764760 21.1938168221592385 15.5437171645025352
 25.1090451745764760 21.1938168221592385 18.3155757467538010
 25.1090451745764760 21.1938168221592385 21.0874343290050668
 25.1090451745764760 21.1938168221592385 23.8592929112563326
 22.8260340567338389 22.8525214911809726 12.7718585822512694
 22.8260340567338389 22.8525214911809726 15.5437171645025352
 22.8260340567338389 22.8525214911809726 18.3155757467538010
 22.8260340567338389 22.8525214911809726 21.0874343290050668
 22.8260340567338389 22.8525214911809726 23.8592929112563326
 20.5430229388911982 24.5112261602027104 12.7718585822512694
 20.5430229388911982 24.5112261602027104 15.5437171645025352
 20.5430229388911982 24.5112261602027104 18.3155757467538010
 20.5430229388911982 24.5112261602027104 21.0874343290050668
 20.5430229388911982 24.5112261602027104 23.8592929112563326
 18.2600118210485576 22.8525214911809726 12.7718585822512694
 18.2600118210485576 22.8525214911809726 15.5437171645025352
 18.2600118210485576 22.8525214911809726 18.3155757467538010
 18.2600118210485576 22.8525214911809726 21.0874343290050668
 18.2600118210485576 22.8525214911809726 23.8592929112563326
 15.9770007032059205 21.1938168221592385 12.7718585822512694
 15.9770007032059205 21.1938168221592385 15.5437171645025352
 15.9770007032059205 21.1938168221592385 18.3155757467538010
 15.9770007032059205 21.1938168221592385 21.0874343290050668
 15.9770007032059205 21.1938168221592385 23.8592929112563326
 16.8490333535279149 18.5099762903839249 12.7718585822512694
 16.8490333535279149 18.5099762903839249 15.5437171645025352
 16.8490333535279149 18.5099762903839249 18.3155757467538010
 16.8490333535279149 18.5099762903839249 21.0874343290050668
 16.8490333535279149 18.5099762903839249 23.8592929112563326
 17.7210660038499128 15.8261357586086113 12.7718585822512694
 17.7210660038499128 15.8261357586086113 15.5437171645025352
 17.7210660038499128 15.8261357586086113 18.3155757467538010
 17.7210660038499128 15.8261357586086113 21.0874343290050668
 17.7210660038499128 15.8261357586086113 23.8592929112563326
 20.5430229388911982 15.8261357586086113 12.7718585822512694
 20.5430229388911982 15.8261357586086113 15.5437171645025352
 20.5430229388911982 15.8261357586086113 18.3155757467538010
 20.5430229388911982 15.8261357586086113 21.0874343290050668
 20.5430229388911982 15.8261357586086113 23.8592929112563326
 23.3649798739324837 15.8261357586086113 12.7718585822512694
 23.3649798739324837 15.8261357586086113 15.5437171645025352
 23.3649798739324837 15.8261357586086113 18.3155757467538010
 23.3649798739324837 15.8261357586086113 21.0874343290050668
 23.3649798739324837 15.8261357586086113 23.8592929112563326
 24.2370125242544816 18.5099762903839249 12.7718585822512694
 24.2370125242544816 18.5099762903839249 15.5437171645025352
 24.2370125242544816 18.5099762903839249 18.3155757467538010
 24.2370125242544816 18.5099762903839249 21.0874343290050668
 24.2370125242544816 18.5099762903839249 23.8592929112563326
 27.3920562924191167 21.9356121010650149 14.1577878733769005
 27.3920562924191167 21.9356121010650149 16.9296464556281663
 27.3920562924191167 21.9356121010650149 19.7015050378794356
 27.3920562924191167 21.9356121010650149 22.4733636201307014
 25.1090451745764760 23.5943167700867527 14.1577878733769005
 25.1090451745764760 23.5943167700867527 16.9296464556281663
 25.1090451745764760 23.5943167700867527 19.7015050378794356
 25.1090451745764760 23.5943167700867527 22.4733636201307014
 22.8260340567338389 25.2530214391084868 14.1577878733769005
 22.8260340567338389 25.2530214391084868 16.9296464556281663
 22.8260340567338389 25.2530214391084868 19.7015050378794356
 22.8260340567338389 25.2530214391084868 22.4733636201307014
 20.5430229388911982 26.9117261081302246 14.1577878733769005
 20.5430229388911982 26.9117261081302246 16.9296464556281663
 20.5430229388911982 26.9117261081302246 19.7015050378794356
 20.5430229388911982 26.9117261081302246 22.4733636201307014
 18.2600118210485576 25.2530214391084868 14.1577878733769005
 18.2600118210485576 25.2530214391084868 16.9296464556281663
 18.2600118210485576 25.2530214391084868 19.7015050378794356
 18.2600118210485576 25.2530214391084868 22.4733636201307014
 15.9770007032059205 23.5943167700867527 14.1577878733769005
 15.9770007032059205 23.5943167700867527 16.9296464556281663
 15.9770007032059205 23.5943167700867527 19.7015050378794356
 15.9770007032059205 23.5943167700867527 22.4733636201307014
 13.6939895853632798 21.9356121010650185 14.1577878733769005
 13.6939895853632798 21.9356121010650185 16.9296464556281663
 13.6939895853632798 21.9356121010650185 19.7015050378794356
 13.6939895853632798 21.9356121010650185 22.4733636201307014
 14.5660222356852778 19.2517715692897049 14.1577878733769005
 14.5660222356852778 19.2517715692897049 16.9296464556281663
 14.5660222356852778 19.2517715692897049 19.7015050378794356
 14.5660222356852778 19.2517715692897049 22.4733636201307014
 15.4380548860072722 16.5679310375143913 14.1577878733769005
 15.4380548860072722 16.5679310375143913 16.9296464556281663
 15.4380548860072722 16.5679310375143913 19.7015050378794356
 15.4380548860072722 16.5679310375143913 22.4733636201307014
 16.3100875363292701 13.8840905057390778 14.1577878733769005
 16.3100875363292701 13.8840905057390778 16.9296464556281663
 16.3100875363292701 13.8840905057390778 19.7015050378794356
 16.3100875363292701 13.8840905057390778 22.4733636201307014
 19.1320444713705555 13.8840905057390760 14.1577878733769005
 19.1320444713705555 13.8840905057390760 16.9296464556281663
 19.1320444713705555 13.8840905057390760 19.7015050378794356
 19.1320444713705555 13.8840905057390760 22.4733636201307014
 21.9540014064118409 13.8840905057390742 14.1577878733769005
 21.9540014064118409 13.8840905057390742 16.9296464556281663
 21.9540014064118409 13.8840905057390742 19.7015050378794356
 21.9540014064118409 13.8840905057390742 22.4733636201307014
 24.7759583414531264 13.8840905057390742 14.1577878733769005
 24.7759583414531264 13.8840905057390742 16.9296464556281663
 24.7759583414531264 13.8840905057390742 19.7015050378794356
 24.7759583414531264 13.8840905057390742 22.4733636201307014
 25.6479909917751208 16.5679310375143878 14.1577878733769005
 25.6479909917751208 16.5679310375143878 16.9296464556281663
 25.6479909917751208 16.5679310375143878 19.7015050378794356
 25.6479909917751208 16.5679310375143878 22.4733636201307014
 26.5200236420971187 19.2517715692897013 14.1577878733769005
 26.5200236420971187 19.2517715692897013 16.9296464556281663
 26.5200236420971187 19.2517715692897013 19.7015050378794356
 26.5200236420971187 19.2517715692897013 22.4733636201307014
 29.6750674102617538 22.6774073799707914 15.5437171645025352
 29.6750674102617538 22.6774073799707914 18.3155757467538010
 29.6750674102617538 22.6774073799707914 21.0874343290050668
 27.3920562924191167 24.3361120489925291 15.5437171645025352
 27.3920562924191167 24.3361120489925291 18.3155757467538010
 27.3920562924191167 24.3361120489925291 21.0874343290050668
 25.1090451745764760 25.9948167180142669 15.5437171645025352
 25.1090451745764760 25.9948167180142669 18.3155757467538010
 25.1090451745764760 25.9948167180142669 21.0874343290050668
 22.8260340567338389 27.6535213870360010 15.5437171645025352
 22.8260340567338389 27.6535213870360010 18.3155757467538010
 22.8260340567338389 27.6535213870360010 21.0874343290050668
 20.5430229388911982 29.3122260560577388 15.5437171645025352
 20.5430229388911982 29.3122260560577388 18.3155757467538010
 20.5430229388911982 29.3122260560577388 21.0874343290050668
 18.2600118210485576 27.6535213870360010 15.5437171645025352
 18.2600118210485576 27.6535213870360010 18.3155757467538010
 18.2600118210485576 27.6535213870360010 21.0874343290050668
 15.9770007032059205 25.9948167180142669 15.5437171645025352
 15.9770007032059205 25.9948167180142669 18.3155757467538010
 15.9770007032059205 25.9948167180142669 21.0874343290050668
 13.6939895853632798 24.3361120489925327 15.5437171645025352
 13.6939895853632798 24.3361120489925327 18.3155757467538010
 13.6939895853632798 24.3361120489925327 21.0874343290050668
 11.4109784675206409 22.6774073799707949 15.5437171645025352
 11.4109784675206409 22.6774073799707949 18.3155757467538010
 11.4109784675206409 22.6774073799707949 21.0874343290050668
 12.2830111178426371 19.9935668481954814 15.5437171645025352
 12.2830111178426371 19.9935668481954814 18.3155757467538010
 12.2830111178426371 19.9935668481954814 21.0874343290050668
 13.1550437681646333 17.3097263164201678 15.5437171645025352
 13.1550437681646333 17.3097263164201678 18.3155757467538010
 13.1550437681646333 17.3097263164201678 21.0874343290050668
 14.0270764184866294 14.6258857846448542 15.5437171645025352
 14.0270764184866294 14.6258857846448542 18.3155757467538010
 14.0270764184866294 14.6258857846448542 21.0874343290050668
 14.8991090688086274 11.9420452528695407 15.5437171645025352
 14.8991090688086274 11.9420452528695407 18.3155757467538010
 14.8991090688086274 11.9420452528695407 21.0874343290050668
 17.7210660038499128 11.9420452528695407 15.5437171645025352
 17.7210660038499128 11.9420452528695407 18.3155757467538010
 17.7210660038499128 11.9420452528695407 21.0874343290050668
 20.5430229388911982 11.9420452528695407 15.5437171645025352
 20.5430229388911982 11.9420452528695407 18.3155757467538010
 20.5430229388911982 11.9420452528695407 21.0874343290050668
 23.3649798739324837 11.9420452528695389 15.5437171645025352
 23.3649798739324837 11.9420452528695389 18.3155757467538010
 23.3649798739324837 11.9420452528695389 21.0874343290050668
 26.1869368089737655 11.9420452528695389 15.5437171645025352
 26.1869368089737655 11.9420452528695389 18.3155757467538010
 26.1869368089737655 11.9420452528695389 21.0874343290050668
 27.0589694592957635 14.6258857846448507 15.5437171645025352
 27.0589694592957635 14.6258857846448507 18.3155757467538010
 27.0589694592957635 14.6258857846448507 21.0874343290050668
 27.9310021096177614 17.3097263164201678 15.5437171645025352
 27.9310021096177614 17.3097263164201678 18.3155757467538010
 27.9310021096177614 17.3097263164201678 21.0874343290050668
 28.8030347599397594 19.9935668481954778 15.5437171645025352
 28.8030347599397594 19.9935668481954778 18.3155757467538010
 28.8030347599397594 19.9935668481954778 21.0874343290050668
 29.6750674102617538 25.0779073278983091 16.9296464556281663
 29.6750674102617538 25.0779073278983091 19.7015050378794356
 27.3920562924191167 26.7366119969200433 16.9296464556281663
 27.3920562924191167 26.7366119969200433 19.7015050378794356
 25.1090451745764760 28.3953166659417775 16.9296464556281663
 25.1090451745764760 28.3953166659417775 19.7015050378794356
 22.8260340567338389 30.0540213349635152 16.9296464556281663
 22.8260340567338389 30.0540213349635152 19.7015050378794356
 18.2600118210485576 30.0540213349635152 16.9296464556281663
 18.2600118210485576 30.0540213349635152 19.7015050378794356
 15.9770007032059205 28.3953166659417811 16.9296464556281663
 15.9770007032059205 28.3953166659417811 19.7015050378794356
 13.6939895853632798 26.7366119969200469 16.9296464556281663
 13.6939895853632798 26.7366119969200469 19.7015050378794356
 11.4109784675206409 25.0779073278983091 16.9296464556281663
 11.4109784675206409 25.0779073278983091 19.7015050378794356
  9.9999999999999982 20.7353621271012614 16.9296464556281663
  9.9999999999999982 20.7353621271012614 19.7015050378794356
 10.8720326503219944 18.0515215953259478 16.9296464556281663
 10.8720326503219944 18.0515215953259478 19.7015050378794356
 11.7440653006439906 15.3676810635506342 16.9296464556281663
 11.7440653006439906 15.3676810635506342 19.7015050378794356
 12.6160979509659867 12.6838405317753207 16.9296464556281663
 12.6160979509659867 12.6838405317753207 19.7015050378794356
 16.3100875363292701 10.0000000000000053 16.9296464556281663
 16.3100875363292701 10.0000000000000053 19.7015050378794356
 19.1320444713705520 10.0000000000000053 16.9296464556281663
 19.1320444713705520 10.0000000000000053 19.7015050378794356
 21.9540014064118374 10.0000000000000036 16.9296464556281663
 21.9540014064118374 10.0000000000000036 19.7015050378794356
 24.7759583414531228 10.0000000000000036 16.9296464556281663
 24.7759583414531228 10.0000000000000036 19.7015050378794356
 28.4699479268164062 12.6838405317753171 16.9296464556281663
 28.4699479268164062 12.6838405317753171 19.7015050378794356
 29.3419805771384041 15.3676810635506307 16.9296464556281663
 29.3419805771384041 15.3676810635506307 19.7015050378794356
 30.2140132274603985 18.0515215953259442 16.9296464556281663
 30.2140132274603985 18.0515215953259442 19.7015050378794356
 31.0860458777823965 20.7353621271012578 16.9296464556281663
 31.0860458777823965 20.7353621271012578 19.7015050378794356
