Au 
 1.0000000000000000
    56.7199999999999989    0.0000000000000000    0.0000000000000000
     0.0000000000000000   56.7199999999999989    0.0000000000000000
     0.0000000000000000    0.0000000000000000   56.7199999999999989
 Au 
 670
Cartesian
 10.0000000000000000 28.3599999999999994 28.3599999999999994
 12.0400000000000027 26.3200000000000003 28.3599999999999994
 12.0400000000000027 28.3599999999999994 26.3200000000000003
 12.0400000000000027 28.3599999999999994 30.4000000000000021
 12.0400000000000027 30.4000000000000021 28.3599999999999994
 14.0800000000000018 24.2800000000000011 28.3599999999999994
 16.1200000000000010 22.2400000000000020 28.3599999999999994
 16.1200000000000010 24.2800000000000011 26.3200000000000003
 16.1200000000000010 24.2800000000000011 30.4000000000000021
 14.0800000000000018 28.3599999999999994 24.2800000000000011
 16.1200000000000010 26.3200000000000003 24.2800000000000011
 16.1200000000000010 28.3599999999999994 22.2400000000000020
 14.0800000000000018 26.3200000000000003 26.3200000000000003
 14.0800000000000018 28.3599999999999994 28.3599999999999994
 16.1200000000000010 26.3200000000000003 28.3599999999999994
 16.1200000000000010 28.3599999999999994 26.3200000000000003
 14.0800000000000018 26.3200000000000003 30.4000000000000021
 14.0800000000000018 28.3599999999999994 32.4399999999999977
 16.1200000000000010 26.3200000000000003 32.4399999999999977
 16.1200000000000010 28.3599999999999994 30.4000000000000021
 16.1200000000000010 28.3599999999999994 34.4800000000000040
 16.1200000000000010 30.4000000000000021 24.2800000000000011
 14.0800000000000018 30.4000000000000021 26.3200000000000003
 14.0800000000000018 32.4399999999999977 28.3599999999999994
 16.1200000000000010 30.4000000000000021 28.3599999999999994
 16.1200000000000010 32.4399999999999977 26.3200000000000003
 14.0800000000000018 30.4000000000000021 30.4000000000000021
 16.1200000000000010 30.4000000000000021 32.4399999999999977
 16.1200000000000010 32.4399999999999977 30.4000000000000021
 16.1200000000000010 34.4800000000000040 28.3599999999999994
 18.1600000000000037 20.2000000000000028 28.3599999999999994
 20.2000000000000028 18.1600000000000037 28.3599999999999994
 20.2000000000000028 20.2000000000000028 26.3200000000000003
 20.2000000000000028 20.2000000000000028 30.4000000000000021
 18.1600000000000037 24.2800000000000011 24.2800000000000011
 20.2000000000000028 22.2400000000000020 24.2800000000000011
 20.2000000000000028 24.2800000000000011 22.2400000000000020
 18.1600000000000037 22.2400000000000020 26.3200000000000003
 18.1600000000000037 24.2800000000000011 28.3599999999999994
 20.2000000000000028 22.2400000000000020 28.3599999999999994
 20.2000000000000028 24.2800000000000011 26.3200000000000003
 18.1600000000000037 22.2400000000000020 30.4000000000000021
 18.1600000000000037 24.2800000000000011 32.4399999999999977
 20.2000000000000028 22.2400000000000020 32.4399999999999977
 20.2000000000000028 24.2800000000000011 30.4000000000000021
 20.2000000000000028 24.2800000000000011 34.4800000000000040
 18.1600000000000037 28.3599999999999994 20.2000000000000028
 20.2000000000000028 26.3200000000000003 20.2000000000000028
 20.2000000000000028 28.3599999999999994 18.1600000000000037
 18.1600000000000037 26.3200000000000003 22.2400000000000020
 18.1600000000000037 28.3599999999999994 24.2800000000000011
 20.2000000000000028 26.3200000000000003 24.2800000000000011
 20.2000000000000028 28.3599999999999994 22.2400000000000020
 18.1600000000000037 26.3200000000000003 26.3200000000000003
 18.1600000000000037 28.3599999999999994 28.3599999999999994
 20.2000000000000028 26.3200000000000003 28.3599999999999994
 20.2000000000000028 28.3599999999999994 26.3200000000000003
 18.1600000000000037 26.3200000000000003 30.4000000000000021
 18.1600000000000037 28.3599999999999994 32.4399999999999977
 20.2000000000000028 26.3200000000000003 32.4399999999999977
 20.2000000000000028 28.3599999999999994 30.4000000000000021
 18.1600000000000037 26.3200000000000003 34.4800000000000040
 18.1600000000000037 28.3599999999999994 36.5200000000000031
 20.2000000000000028 26.3200000000000003 36.5200000000000031
 20.2000000000000028 28.3599999999999994 34.4800000000000040
 20.2000000000000028 28.3599999999999994 38.5600000000000023
 20.2000000000000028 30.4000000000000021 20.2000000000000028
 18.1600000000000037 30.4000000000000021 22.2400000000000020
 18.1600000000000037 32.4399999999999977 24.2800000000000011
 20.2000000000000028 30.4000000000000021 24.2800000000000011
 20.2000000000000028 32.4399999999999977 22.2400000000000020
 18.1600000000000037 30.4000000000000021 26.3200000000000003
 18.1600000000000037 32.4399999999999977 28.3599999999999994
 20.2000000000000028 30.4000000000000021 28.3599999999999994
 20.2000000000000028 32.4399999999999977 26.3200000000000003
 18.1600000000000037 30.4000000000000021 30.4000000000000021
 18.1600000000000037 32.4399999999999977 32.4399999999999977
 20.2000000000000028 30.4000000000000021 32.4399999999999977
 20.2000000000000028 32.4399999999999977 30.4000000000000021
 18.1600000000000037 30.4000000000000021 34.4800000000000040
 20.2000000000000028 30.4000000000000021 36.5200000000000031
 20.2000000000000028 32.4399999999999977 34.4800000000000040
 20.2000000000000028 34.4800000000000040 24.2800000000000011
 18.1600000000000037 34.4800000000000040 26.3200000000000003
 18.1600000000000037 36.5200000000000031 28.3599999999999994
 20.2000000000000028 34.4800000000000040 28.3599999999999994
 20.2000000000000028 36.5200000000000031 26.3200000000000003
 18.1600000000000037 34.4800000000000040 30.4000000000000021
 20.2000000000000028 34.4800000000000040 32.4399999999999977
 20.2000000000000028 36.5200000000000031 30.4000000000000021
 20.2000000000000028 38.5600000000000023 28.3599999999999994
 22.2400000000000020 16.1200000000000010 28.3599999999999994
 24.2800000000000011 14.0800000000000018 28.3599999999999994
 24.2800000000000011 16.1200000000000010 26.3200000000000003
 24.2800000000000011 16.1200000000000010 30.4000000000000021
 22.2400000000000020 20.2000000000000028 24.2800000000000011
 24.2800000000000011 18.1600000000000037 24.2800000000000011
 24.2800000000000011 20.2000000000000028 22.2400000000000020
 22.2400000000000020 18.1600000000000037 26.3200000000000003
 22.2400000000000020 20.2000000000000028 28.3599999999999994
 24.2800000000000011 18.1600000000000037 28.3599999999999994
 24.2800000000000011 20.2000000000000028 26.3200000000000003
 22.2400000000000020 18.1600000000000037 30.4000000000000021
 22.2400000000000020 20.2000000000000028 32.4399999999999977
 24.2800000000000011 18.1600000000000037 32.4399999999999977
 24.2800000000000011 20.2000000000000028 30.4000000000000021
 24.2800000000000011 20.2000000000000028 34.4800000000000040
 22.2400000000000020 24.2800000000000011 20.2000000000000028
 24.2800000000000011 22.2400000000000020 20.2000000000000028
 24.2800000000000011 24.2800000000000011 18.1600000000000037
 22.2400000000000020 22.2400000000000020 22.2400000000000020
 22.2400000000000020 24.2800000000000011 24.2800000000000011
 24.2800000000000011 22.2400000000000020 24.2800000000000011
 24.2800000000000011 24.2800000000000011 22.2400000000000020
 22.2400000000000020 22.2400000000000020 26.3200000000000003
 22.2400000000000020 24.2800000000000011 28.3599999999999994
 24.2800000000000011 22.2400000000000020 28.3599999999999994
 24.2800000000000011 24.2800000000000011 26.3200000000000003
 22.2400000000000020 22.2400000000000020 30.4000000000000021
 22.2400000000000020 24.2800000000000011 32.4399999999999977
 24.2800000000000011 22.2400000000000020 32.4399999999999977
 24.2800000000000011 24.2800000000000011 30.4000000000000021
 22.2400000000000020 22.2400000000000020 34.4800000000000040
 22.2400000000000020 24.2800000000000011 36.5200000000000031
 24.2800000000000011 22.2400000000000020 36.5200000000000031
 24.2800000000000011 24.2800000000000011 34.4800000000000040
 24.2800000000000011 24.2800000000000011 38.5600000000000023
 22.2400000000000020 28.3599999999999994 16.1200000000000010
 24.2800000000000011 26.3200000000000003 16.1200000000000010
 24.2800000000000011 28.3599999999999994 14.0800000000000018
 22.2400000000000020 26.3200000000000003 18.1600000000000037
 22.2400000000000020 28.3599999999999994 20.2000000000000028
 24.2800000000000011 26.3200000000000003 20.2000000000000028
 24.2800000000000011 28.3599999999999994 18.1600000000000037
 22.2400000000000020 26.3200000000000003 22.2400000000000020
 22.2400000000000020 28.3599999999999994 24.2800000000000011
 24.2800000000000011 26.3200000000000003 24.2800000000000011
 24.2800000000000011 28.3599999999999994 22.2400000000000020
 22.2400000000000020 26.3200000000000003 26.3200000000000003
 22.2400000000000020 28.3599999999999994 28.3599999999999994
 24.2800000000000011 26.3200000000000003 28.3599999999999994
 24.2800000000000011 28.3599999999999994 26.3200000000000003
 22.2400000000000020 26.3200000000000003 30.4000000000000021
 22.2400000000000020 28.3599999999999994 32.4399999999999977
 24.2800000000000011 26.3200000000000003 32.4399999999999977
 24.2800000000000011 28.3599999999999994 30.4000000000000021
 22.2400000000000020 26.3200000000000003 34.4800000000000040
 22.2400000000000020 28.3599999999999994 36.5200000000000031
 24.2800000000000011 26.3200000000000003 36.5200000000000031
 24.2800000000000011 28.3599999999999994 34.4800000000000040
 22.2400000000000020 26.3200000000000003 38.5600000000000023
 22.2400000000000020 28.3599999999999994 40.6000000000000014
 24.2800000000000011 26.3200000000000003 40.6000000000000014
 24.2800000000000011 28.3599999999999994 38.5600000000000023
 24.2800000000000011 28.3599999999999994 42.6400000000000006
 24.2800000000000011 30.4000000000000021 16.1200000000000010
 22.2400000000000020 30.4000000000000021 18.1600000000000037
 22.2400000000000020 32.4399999999999977 20.2000000000000028
 24.2800000000000011 30.4000000000000021 20.2000000000000028
 24.2800000000000011 32.4399999999999977 18.1600000000000037
 22.2400000000000020 30.4000000000000021 22.2400000000000020
 22.2400000000000020 32.4399999999999977 24.2800000000000011
 24.2800000000000011 30.4000000000000021 24.2800000000000011
 24.2800000000000011 32.4399999999999977 22.2400000000000020
 22.2400000000000020 30.4000000000000021 26.3200000000000003
 22.2400000000000020 32.4399999999999977 28.3599999999999994
 24.2800000000000011 30.4000000000000021 28.3599999999999994
 24.2800000000000011 32.4399999999999977 26.3200000000000003
 22.2400000000000020 30.4000000000000021 30.4000000000000021
 22.2400000000000020 32.4399999999999977 32.4399999999999977
 24.2800000000000011 30.4000000000000021 32.4399999999999977
 24.2800000000000011 32.4399999999999977 30.4000000000000021
 22.2400000000000020 30.4000000000000021 34.4800000000000040
 22.2400000000000020 32.4399999999999977 36.5200000000000031
 24.2800000000000011 30.4000000000000021 36.5200000000000031
 24.2800000000000011 32.4399999999999977 34.4800000000000040
 22.2400000000000020 30.4000000000000021 38.5600000000000023
 24.2800000000000011 30.4000000000000021 40.6000000000000014
 24.2800000000000011 32.4399999999999977 38.5600000000000023
 24.2800000000000011 34.4800000000000040 20.2000000000000028
 22.2400000000000020 34.4800000000000040 22.2400000000000020
 22.2400000000000020 36.5200000000000031 24.2800000000000011
 24.2800000000000011 34.4800000000000040 24.2800000000000011
 24.2800000000000011 36.5200000000000031 22.2400000000000020
 22.2400000000000020 34.4800000000000040 26.3200000000000003
 22.2400000000000020 36.5200000000000031 28.3599999999999994
 24.2800000000000011 34.4800000000000040 28.3599999999999994
 24.2800000000000011 36.5200000000000031 26.3200000000000003
 22.2400000000000020 34.4800000000000040 30.4000000000000021
 22.2400000000000020 36.5200000000000031 32.4399999999999977
 24.2800000000000011 34.4800000000000040 32.4399999999999977
 24.2800000000000011 36.5200000000000031 30.4000000000000021
 22.2400000000000020 34.4800000000000040 34.4800000000000040
 24.2800000000000011 34.4800000000000040 36.5200000000000031
 24.2800000000000011 36.5200000000000031 34.4800000000000040
 24.2800000000000011 38.5600000000000023 24.2800000000000011
 22.2400000000000020 38.5600000000000023 26.3200000000000003
 22.2400000000000020 40.6000000000000014 28.3599999999999994
 24.2800000000000011 38.5600000000000023 28.3599999999999994
 24.2800000000000011 40.6000000000000014 26.3200000000000003
 22.2400000000000020 38.5600000000000023 30.4000000000000021
 24.2800000000000011 38.5600000000000023 32.4399999999999977
 24.2800000000000011 40.6000000000000014 30.4000000000000021
 24.2800000000000011 42.6400000000000006 28.3599999999999994
 26.3200000000000003 12.0400000000000027 28.3599999999999994
 28.3599999999999994 10.0000000000000000 28.3599999999999994
 28.3599999999999994 12.0400000000000027 26.3200000000000003
 28.3599999999999994 12.0400000000000027 30.4000000000000021
 26.3200000000000003 16.1200000000000010 24.2800000000000011
 28.3599999999999994 14.0800000000000018 24.2800000000000011
 28.3599999999999994 16.1200000000000010 22.2400000000000020
 26.3200000000000003 14.0800000000000018 26.3200000000000003
 26.3200000000000003 16.1200000000000010 28.3599999999999994
 28.3599999999999994 14.0800000000000018 28.3599999999999994
 28.3599999999999994 16.1200000000000010 26.3200000000000003
 26.3200000000000003 14.0800000000000018 30.4000000000000021
 26.3200000000000003 16.1200000000000010 32.4399999999999977
 28.3599999999999994 14.0800000000000018 32.4399999999999977
 28.3599999999999994 16.1200000000000010 30.4000000000000021
 28.3599999999999994 16.1200000000000010 34.4800000000000040
 26.3200000000000003 20.2000000000000028 20.2000000000000028
 28.3599999999999994 18.1600000000000037 20.2000000000000028
 28.3599999999999994 20.2000000000000028 18.1600000000000037
 26.3200000000000003 18.1600000000000037 22.2400000000000020
 26.3200000000000003 20.2000000000000028 24.2800000000000011
 28.3599999999999994 18.1600000000000037 24.2800000000000011
 28.3599999999999994 20.2000000000000028 22.2400000000000020
 26.3200000000000003 18.1600000000000037 26.3200000000000003
 26.3200000000000003 20.2000000000000028 28.3599999999999994
 28.3599999999999994 18.1600000000000037 28.3599999999999994
 28.3599999999999994 20.2000000000000028 26.3200000000000003
 26.3200000000000003 18.1600000000000037 30.4000000000000021
 26.3200000000000003 20.2000000000000028 32.4399999999999977
 28.3599999999999994 18.1600000000000037 32.4399999999999977
 28.3599999999999994 20.2000000000000028 30.4000000000000021
 26.3200000000000003 18.1600000000000037 34.4800000000000040
 26.3200000000000003 20.2000000000000028 36.5200000000000031
 28.3599999999999994 18.1600000000000037 36.5200000000000031
 28.3599999999999994 20.2000000000000028 34.4800000000000040
 28.3599999999999994 20.2000000000000028 38.5600000000000023
 26.3200000000000003 24.2800000000000011 16.1200000000000010
 28.3599999999999994 22.2400000000000020 16.1200000000000010
 28.3599999999999994 24.2800000000000011 14.0800000000000018
 26.3200000000000003 22.2400000000000020 18.1600000000000037
 26.3200000000000003 24.2800000000000011 20.2000000000000028
 28.3599999999999994 22.2400000000000020 20.2000000000000028
 28.3599999999999994 24.2800000000000011 18.1600000000000037
 26.3200000000000003 22.2400000000000020 22.2400000000000020
 26.3200000000000003 24.2800000000000011 24.2800000000000011
 28.3599999999999994 22.2400000000000020 24.2800000000000011
 28.3599999999999994 24.2800000000000011 22.2400000000000020
 26.3200000000000003 22.2400000000000020 26.3200000000000003
 26.3200000000000003 24.2800000000000011 28.3599999999999994
 28.3599999999999994 22.2400000000000020 28.3599999999999994
 28.3599999999999994 24.2800000000000011 26.3200000000000003
 26.3200000000000003 22.2400000000000020 30.4000000000000021
 26.3200000000000003 24.2800000000000011 32.4399999999999977
 28.3599999999999994 22.2400000000000020 32.4399999999999977
 28.3599999999999994 24.2800000000000011 30.4000000000000021
 26.3200000000000003 22.2400000000000020 34.4800000000000040
 26.3200000000000003 24.2800000000000011 36.5200000000000031
 28.3599999999999994 22.2400000000000020 36.5200000000000031
 28.3599999999999994 24.2800000000000011 34.4800000000000040
 26.3200000000000003 22.2400000000000020 38.5600000000000023
 26.3200000000000003 24.2800000000000011 40.6000000000000014
 28.3599999999999994 22.2400000000000020 40.6000000000000014
 28.3599999999999994 24.2800000000000011 38.5600000000000023
 28.3599999999999994 24.2800000000000011 42.6400000000000006
 26.3200000000000003 28.3599999999999994 12.0400000000000027
 28.3599999999999994 26.3200000000000003 12.0400000000000027
 28.3599999999999994 28.3599999999999994 10.0000000000000000
 26.3200000000000003 26.3200000000000003 14.0800000000000018
 26.3200000000000003 28.3599999999999994 16.1200000000000010
 28.3599999999999994 26.3200000000000003 16.1200000000000010
 28.3599999999999994 28.3599999999999994 14.0800000000000018
 26.3200000000000003 26.3200000000000003 18.1600000000000037
 26.3200000000000003 28.3599999999999994 20.2000000000000028
 28.3599999999999994 26.3200000000000003 20.2000000000000028
 28.3599999999999994 28.3599999999999994 18.1600000000000037
 26.3200000000000003 26.3200000000000003 22.2400000000000020
 26.3200000000000003 28.3599999999999994 24.2800000000000011
 28.3599999999999994 26.3200000000000003 24.2800000000000011
 28.3599999999999994 28.3599999999999994 22.2400000000000020
 26.3200000000000003 26.3200000000000003 26.3200000000000003
 26.3200000000000003 28.3599999999999994 28.3599999999999994
 28.3599999999999994 26.3200000000000003 28.3599999999999994
 28.3599999999999994 28.3599999999999994 26.3200000000000003
 26.3200000000000003 26.3200000000000003 30.4000000000000021
 26.3200000000000003 28.3599999999999994 32.4399999999999977
 28.3599999999999994 26.3200000000000003 32.4399999999999977
 28.3599999999999994 28.3599999999999994 30.4000000000000021
 26.3200000000000003 26.3200000000000003 34.4800000000000040
 26.3200000000000003 28.3599999999999994 36.5200000000000031
 28.3599999999999994 26.3200000000000003 36.5200000000000031
 28.3599999999999994 28.3599999999999994 34.4800000000000040
 26.3200000000000003 26.3200000000000003 38.5600000000000023
 26.3200000000000003 28.3599999999999994 40.6000000000000014
 28.3599999999999994 26.3200000000000003 40.6000000000000014
 28.3599999999999994 28.3599999999999994 38.5600000000000023
 26.3200000000000003 26.3200000000000003 42.6400000000000006
 26.3200000000000003 28.3599999999999994 44.6799999999999997
 28.3599999999999994 26.3200000000000003 44.6799999999999997
 28.3599999999999994 28.3599999999999994 42.6400000000000006
 28.3599999999999994 28.3599999999999994 46.7199999999999989
 28.3599999999999994 30.4000000000000021 12.0400000000000027
 26.3200000000000003 30.4000000000000021 14.0800000000000018
 26.3200000000000003 32.4399999999999977 16.1200000000000010
 28.3599999999999994 30.4000000000000021 16.1200000000000010
 28.3599999999999994 32.4399999999999977 14.0800000000000018
 26.3200000000000003 30.4000000000000021 18.1600000000000037
 26.3200000000000003 32.4399999999999977 20.2000000000000028
 28.3599999999999994 30.4000000000000021 20.2000000000000028
 28.3599999999999994 32.4399999999999977 18.1600000000000037
 26.3200000000000003 30.4000000000000021 22.2400000000000020
 26.3200000000000003 32.4399999999999977 24.2800000000000011
 28.3599999999999994 30.4000000000000021 24.2800000000000011
 28.3599999999999994 32.4399999999999977 22.2400000000000020
 26.3200000000000003 30.4000000000000021 26.3200000000000003
 26.3200000000000003 32.4399999999999977 28.3599999999999994
 28.3599999999999994 30.4000000000000021 28.3599999999999994
 28.3599999999999994 32.4399999999999977 26.3200000000000003
 26.3200000000000003 30.4000000000000021 30.4000000000000021
 26.3200000000000003 32.4399999999999977 32.4399999999999977
 28.3599999999999994 30.4000000000000021 32.4399999999999977
 28.3599999999999994 32.4399999999999977 30.4000000000000021
 26.3200000000000003 30.4000000000000021 34.4800000000000040
 26.3200000000000003 32.4399999999999977 36.5200000000000031
 28.3599999999999994 30.4000000000000021 36.5200000000000031
 28.3599999999999994 32.4399999999999977 34.4800000000000040
 26.3200000000000003 30.4000000000000021 38.5600000000000023
 26.3200000000000003 32.4399999999999977 40.6000000000000014
 28.3599999999999994 30.4000000000000021 40.6000000000000014
 28.3599999999999994 32.4399999999999977 38.5600000000000023
 26.3200000000000003 30.4000000000000021 42.6400000000000006
 28.3599999999999994 30.4000000000000021 44.6799999999999997
 28.3599999999999994 32.4399999999999977 42.6400000000000006
 28.3599999999999994 34.4800000000000040 16.1200000000000010
 26.3200000000000003 34.4800000000000040 18.1600000000000037
 26.3200000000000003 36.5200000000000031 20.2000000000000028
 28.3599999999999994 34.4800000000000040 20.2000000000000028
 28.3599999999999994 36.5200000000000031 18.1600000000000037
 26.3200000000000003 34.4800000000000040 22.2400000000000020
 26.3200000000000003 36.5200000000000031 24.2800000000000011
 28.3599999999999994 34.4800000000000040 24.2800000000000011
 28.3599999999999994 36.5200000000000031 22.2400000000000020
 26.3200000000000003 34.4800000000000040 26.3200000000000003
 26.3200000000000003 36.5200000000000031 28.3599999999999994
 28.3599999999999994 34.4800000000000040 28.3599999999999994
 28.3599999999999994 36.5200000000000031 26.3200000000000003
 26.3200000000000003 34.4800000000000040 30.4000000000000021
 26.3200000000000003 36.5200000000000031 32.4399999999999977
 28.3599999999999994 34.4800000000000040 32.4399999999999977
 28.3599999999999994 36.5200000000000031 30.4000000000000021
 26.3200000000000003 34.4800000000000040 34.4800000000000040
 26.3200000000000003 36.5200000000000031 36.5200000000000031
 28.3599999999999994 34.4800000000000040 36.5200000000000031
 28.3599999999999994 36.5200000000000031 34.4800000000000040
 26.3200000000000003 34.4800000000000040 38.5600000000000023
 28.3599999999999994 34.4800000000000040 40.6000000000000014
 28.3599999999999994 36.5200000000000031 38.5600000000000023
 28.3599999999999994 38.5600000000000023 20.2000000000000028
 26.3200000000000003 38.5600000000000023 22.2400000000000020
 26.3200000000000003 40.6000000000000014 24.2800000000000011
 28.3599999999999994 38.5600000000000023 24.2800000000000011
 28.3599999999999994 40.6000000000000014 22.2400000000000020
 26.3200000000000003 38.5600000000000023 26.3200000000000003
 26.3200000000000003 40.6000000000000014 28.3599999999999994
 28.3599999999999994 38.5600000000000023 28.3599999999999994
 28.3599999999999994 40.6000000000000014 26.3200000000000003
 26.3200000000000003 38.5600000000000023 30.4000000000000021
 26.3200000000000003 40.6000000000000014 32.4399999999999977
 28.3599999999999994 38.5600000000000023 32.4399999999999977
 28.3599999999999994 40.6000000000000014 30.4000000000000021
 26.3200000000000003 38.5600000000000023 34.4800000000000040
 28.3599999999999994 38.5600000000000023 36.5200000000000031
 28.3599999999999994 40.6000000000000014 34.4800000000000040
 28.3599999999999994 42.6400000000000006 24.2800000000000011
 26.3200000000000003 42.6400000000000006 26.3200000000000003
 26.3200000000000003 44.6799999999999997 28.3599999999999994
 28.3599999999999994 42.6400000000000006 28.3599999999999994
 28.3599999999999994 44.6799999999999997 26.3200000000000003
 26.3200000000000003 42.6400000000000006 30.4000000000000021
 28.3599999999999994 42.6400000000000006 32.4399999999999977
 28.3599999999999994 44.6799999999999997 30.4000000000000021
 28.3599999999999994 46.7199999999999989 28.3599999999999994
 30.4000000000000021 12.0400000000000027 28.3599999999999994
 30.4000000000000021 16.1200000000000010 24.2800000000000011
 30.4000000000000021 14.0800000000000018 26.3200000000000003
 30.4000000000000021 16.1200000000000010 28.3599999999999994
 32.4399999999999977 14.0800000000000018 28.3599999999999994
 32.4399999999999977 16.1200000000000010 26.3200000000000003
 30.4000000000000021 14.0800000000000018 30.4000000000000021
 30.4000000000000021 16.1200000000000010 32.4399999999999977
 32.4399999999999977 16.1200000000000010 30.4000000000000021
 30.4000000000000021 20.2000000000000028 20.2000000000000028
 30.4000000000000021 18.1600000000000037 22.2400000000000020
 30.4000000000000021 20.2000000000000028 24.2800000000000011
 32.4399999999999977 18.1600000000000037 24.2800000000000011
 32.4399999999999977 20.2000000000000028 22.2400000000000020
 30.4000000000000021 18.1600000000000037 26.3200000000000003
 30.4000000000000021 20.2000000000000028 28.3599999999999994
 32.4399999999999977 18.1600000000000037 28.3599999999999994
 32.4399999999999977 20.2000000000000028 26.3200000000000003
 30.4000000000000021 18.1600000000000037 30.4000000000000021
 30.4000000000000021 20.2000000000000028 32.4399999999999977
 32.4399999999999977 18.1600000000000037 32.4399999999999977
 32.4399999999999977 20.2000000000000028 30.4000000000000021
 30.4000000000000021 18.1600000000000037 34.4800000000000040
 30.4000000000000021 20.2000000000000028 36.5200000000000031
 32.4399999999999977 20.2000000000000028 34.4800000000000040
 30.4000000000000021 24.2800000000000011 16.1200000000000010
 30.4000000000000021 22.2400000000000020 18.1600000000000037
 30.4000000000000021 24.2800000000000011 20.2000000000000028
 32.4399999999999977 22.2400000000000020 20.2000000000000028
 32.4399999999999977 24.2800000000000011 18.1600000000000037
 30.4000000000000021 22.2400000000000020 22.2400000000000020
 30.4000000000000021 24.2800000000000011 24.2800000000000011
 32.4399999999999977 22.2400000000000020 24.2800000000000011
 32.4399999999999977 24.2800000000000011 22.2400000000000020
 30.4000000000000021 22.2400000000000020 26.3200000000000003
 30.4000000000000021 24.2800000000000011 28.3599999999999994
 32.4399999999999977 22.2400000000000020 28.3599999999999994
 32.4399999999999977 24.2800000000000011 26.3200000000000003
 30.4000000000000021 22.2400000000000020 30.4000000000000021
 30.4000000000000021 24.2800000000000011 32.4399999999999977
 32.4399999999999977 22.2400000000000020 32.4399999999999977
 32.4399999999999977 24.2800000000000011 30.4000000000000021
 30.4000000000000021 22.2400000000000020 34.4800000000000040
 30.4000000000000021 24.2800000000000011 36.5200000000000031
 32.4399999999999977 22.2400000000000020 36.5200000000000031
 32.4399999999999977 24.2800000000000011 34.4800000000000040
 30.4000000000000021 22.2400000000000020 38.5600000000000023
 30.4000000000000021 24.2800000000000011 40.6000000000000014
 32.4399999999999977 24.2800000000000011 38.5600000000000023
 30.4000000000000021 28.3599999999999994 12.0400000000000027
 30.4000000000000021 26.3200000000000003 14.0800000000000018
 30.4000000000000021 28.3599999999999994 16.1200000000000010
 32.4399999999999977 26.3200000000000003 16.1200000000000010
 32.4399999999999977 28.3599999999999994 14.0800000000000018
 30.4000000000000021 26.3200000000000003 18.1600000000000037
 30.4000000000000021 28.3599999999999994 20.2000000000000028
 32.4399999999999977 26.3200000000000003 20.2000000000000028
 32.4399999999999977 28.3599999999999994 18.1600000000000037
 30.4000000000000021 26.3200000000000003 22.2400000000000020
 30.4000000000000021 28.3599999999999994 24.2800000000000011
 32.4399999999999977 26.3200000000000003 24.2800000000000011
 32.4399999999999977 28.3599999999999994 22.2400000000000020
 30.4000000000000021 26.3200000000000003 26.3200000000000003
 30.4000000000000021 28.3599999999999994 28.3599999999999994
 32.4399999999999977 26.3200000000000003 28.3599999999999994
 32.4399999999999977 28.3599999999999994 26.3200000000000003
 30.4000000000000021 26.3200000000000003 30.4000000000000021
 30.4000000000000021 28.3599999999999994 32.4399999999999977
 32.4399999999999977 26.3200000000000003 32.4399999999999977
 32.4399999999999977 28.3599999999999994 30.4000000000000021
 30.4000000000000021 26.3200000000000003 34.4800000000000040
 30.4000000000000021 28.3599999999999994 36.5200000000000031
 32.4399999999999977 26.3200000000000003 36.5200000000000031
 32.4399999999999977 28.3599999999999994 34.4800000000000040
 30.4000000000000021 26.3200000000000003 38.5600000000000023
 30.4000000000000021 28.3599999999999994 40.6000000000000014
 32.4399999999999977 26.3200000000000003 40.6000000000000014
 32.4399999999999977 28.3599999999999994 38.5600000000000023
 30.4000000000000021 26.3200000000000003 42.6400000000000006
 30.4000000000000021 28.3599999999999994 44.6799999999999997
 32.4399999999999977 28.3599999999999994 42.6400000000000006
 30.4000000000000021 30.4000000000000021 14.0800000000000018
 30.4000000000000021 32.4399999999999977 16.1200000000000010
 32.4399999999999977 30.4000000000000021 16.1200000000000010
 30.4000000000000021 30.4000000000000021 18.1600000000000037
 30.4000000000000021 32.4399999999999977 20.2000000000000028
 32.4399999999999977 30.4000000000000021 20.2000000000000028
 32.4399999999999977 32.4399999999999977 18.1600000000000037
 30.4000000000000021 30.4000000000000021 22.2400000000000020
 30.4000000000000021 32.4399999999999977 24.2800000000000011
 32.4399999999999977 30.4000000000000021 24.2800000000000011
 32.4399999999999977 32.4399999999999977 22.2400000000000020
 30.4000000000000021 30.4000000000000021 26.3200000000000003
 30.4000000000000021 32.4399999999999977 28.3599999999999994
 32.4399999999999977 30.4000000000000021 28.3599999999999994
 32.4399999999999977 32.4399999999999977 26.3200000000000003
 30.4000000000000021 30.4000000000000021 30.4000000000000021
 30.4000000000000021 32.4399999999999977 32.4399999999999977
 32.4399999999999977 30.4000000000000021 32.4399999999999977
 32.4399999999999977 32.4399999999999977 30.4000000000000021
 30.4000000000000021 30.4000000000000021 34.4800000000000040
 30.4000000000000021 32.4399999999999977 36.5200000000000031