Pt 
 1.0000000000000000
    24.5660222356852778    0.0000000000000000    0.0000000000000000
     0.0000000000000000   24.3425452007970478    0.0000000000000000
     0.0000000000000000    0.0000000000000000   28.3155757467538010
 Pt 
  19
Cartesian
 12.2830111178426389 11.9420452528695353 10.0000000000000000
 12.2830111178426389 11.9420452528695353 12.7718585822512676
 12.2830111178426389 11.9420452528695353 15.5437171645025334
 12.2830111178426389 11.9420452528695353 18.3155757467538010
 14.5660222356852778 12.6838405317753136 11.3859292911256347
 14.5660222356852778 12.6838405317753136 14.1577878733769005
 14.5660222356852778 12.6838405317753136 16.9296464556281663
 12.2830111178426389 14.3425452007970495 11.3859292911256347
 12.2830111178426389 14.3425452007970495 14.1577878733769005
 12.2830111178426389 14.3425452007970495 16.9296464556281663
 10.0000000000000000 12.6838405317753136 11.3859292911256347
 10.0000000000000000 12.6838405317753136 14.1577878733769005
 10.0000000000000000 12.6838405317753136 16.9296464556281663
 10.8720326503219962 10.0000000000000000 11.3859292911256347
 10.8720326503219962 10.0000000000000000 14.1577878733769005
 10.8720326503219962 10.0000000000000000 16.9296464556281663
 13.6939895853632816 10.0000000000000000 11.3859292911256347
 13.6939895853632816 10.0000000000000000 14.1577878733769005
 13.6939895853632816 10.0000000000000000 16.9296464556281663
