Au 
 1.0000000000000000
    41.9467008115694355    0.0000000000000000    0.0000000000000000
     0.0000000000000000   40.8725528180232516    0.0000000000000000
     0.0000000000000000    0.0000000000000000   45.9649610051700250
 Au 
 460
Cartesian
 20.9733504057847178 20.1065620302394237 10.0000000000000000
 20.9733504057847178 20.1065620302394237 12.8849956672411139
 20.9733504057847178 20.1065620302394237 15.7699913344822278
 20.9733504057847178 20.1065620302394237 18.6549870017233417
 20.9733504057847178 20.1065620302394237 21.5399826689644556
 20.9733504057847178 20.1065620302394237 24.4249783362055695
 20.9733504057847178 20.1065620302394237 27.3099740034466834
 20.9733504057847178 20.1065620302394237 30.1949696706877972
 20.9733504057847178 20.1065620302394237 33.0799653379289111
 20.9733504057847178 20.1065620302394237 35.9649610051700250
 23.3495456508862418 20.8786346674678853 11.4424978336205569
 23.3495456508862418 20.8786346674678853 14.3274935008616708
 23.3495456508862418 20.8786346674678853 17.2124891681027847
 23.3495456508862418 20.8786346674678853 20.0974848353438986
 23.3495456508862418 20.8786346674678853 22.9824805025850125
 23.3495456508862418 20.8786346674678853 25.8674761698261264
 23.3495456508862418 20.8786346674678853 28.7524718370672403
 23.3495456508862418 20.8786346674678853 31.6374675043083542
 23.3495456508862418 20.8786346674678853 34.5224631715494681
 20.9733504057847178 22.6050415678782670 11.4424978336205569
 20.9733504057847178 22.6050415678782670 14.3274935008616708
 20.9733504057847178 22.6050415678782670 17.2124891681027847
 20.9733504057847178 22.6050415678782670 20.0974848353438986
 20.9733504057847178 22.6050415678782670 22.9824805025850125
 20.9733504057847178 22.6050415678782670 25.8674761698261264
 20.9733504057847178 22.6050415678782670 28.7524718370672403
 20.9733504057847178 22.6050415678782670 31.6374675043083542
 20.9733504057847178 22.6050415678782670 34.5224631715494681
 18.5971551606831937 20.8786346674678853 11.4424978336205569
 18.5971551606831937 20.8786346674678853 14.3274935008616708
 18.5971551606831937 20.8786346674678853 17.2124891681027847
 18.5971551606831937 20.8786346674678853 20.0974848353438986
 18.5971551606831937 20.8786346674678853 22.9824805025850125
 18.5971551606831937 20.8786346674678853 25.8674761698261264
 18.5971551606831937 20.8786346674678853 28.7524718370672403
 18.5971551606831937 20.8786346674678853 31.6374675043083542
 18.5971551606831937 20.8786346674678853 34.5224631715494681
 19.5047809804060890 18.0852496241915404 11.4424978336205569
 19.5047809804060890 18.0852496241915404 14.3274935008616708
 19.5047809804060890 18.0852496241915404 17.2124891681027847
 19.5047809804060890 18.0852496241915404 20.0974848353438986
 19.5047809804060890 18.0852496241915404 22.9824805025850125
 19.5047809804060890 18.0852496241915404 25.8674761698261264
 19.5047809804060890 18.0852496241915404 28.7524718370672403
 19.5047809804060890 18.0852496241915404 31.6374675043083542
 19.5047809804060890 18.0852496241915404 34.5224631715494681
 22.4419198311633465 18.0852496241915404 11.4424978336205569
 22.4419198311633465 18.0852496241915404 14.3274935008616708
 22.4419198311633465 18.0852496241915404 17.2124891681027847
 22.4419198311633465 18.0852496241915404 20.0974848353438986
 22.4419198311633465 18.0852496241915404 22.9824805025850125
 22.4419198311633465 18.0852496241915404 25.8674761698261264
 22.4419198311633465 18.0852496241915404 28.7524718370672403
 22.4419198311633465 18.0852496241915404 31.6374675043083542
 22.4419198311633465 18.0852496241915404 34.5224631715494681
 25.7257408959877623 21.6507073046963470 12.8849956672411139
 25.7257408959877623 21.6507073046963470 15.7699913344822278
 25.7257408959877623 21.6507073046963470 18.6549870017233417
 25.7257408959877623 21.6507073046963470 21.5399826689644556
 25.7257408959877623 21.6507073046963470 24.4249783362055695
 25.7257408959877623 21.6507073046963470 27.3099740034466834
 25.7257408959877623 21.6507073046963470 30.1949696706877972
 25.7257408959877623 21.6507073046963470 33.0799653379289111
 23.3495456508862418 23.3771142051067287 12.8849956672411139
 23.3495456508862418 23.3771142051067287 15.7699913344822278
 23.3495456508862418 23.3771142051067287 18.6549870017233417
 23.3495456508862418 23.3771142051067287 21.5399826689644556
 23.3495456508862418 23.3771142051067287 24.4249783362055695
 23.3495456508862418 23.3771142051067287 27.3099740034466834
 23.3495456508862418 23.3771142051067287 30.1949696706877972
 23.3495456508862418 23.3771142051067287 33.0799653379289111
 20.9733504057847178 25.1035211055171068 12.8849956672411139
 20.9733504057847178 25.1035211055171068 15.7699913344822278
 20.9733504057847178 25.1035211055171068 18.6549870017233417
 20.9733504057847178 25.1035211055171068 21.5399826689644556
 20.9733504057847178 25.1035211055171068 24.4249783362055695
 20.9733504057847178 25.1035211055171068 27.3099740034466834
 20.9733504057847178 25.1035211055171068 30.1949696706877972
 20.9733504057847178 25.1035211055171068 33.0799653379289111
 18.5971551606831937 23.3771142051067287 12.8849956672411139
 18.5971551606831937 23.3771142051067287 15.7699913344822278
 18.5971551606831937 23.3771142051067287 18.6549870017233417
 18.5971551606831937 23.3771142051067287 21.5399826689644556
 18.5971551606831937 23.3771142051067287 24.4249783362055695
 18.5971551606831937 23.3771142051067287 27.3099740034466834
 18.5971551606831937 23.3771142051067287 30.1949696706877972
 18.5971551606831937 23.3771142051067287 33.0799653379289111
 16.2209599155816733 21.6507073046963505 12.8849956672411139
 16.2209599155816733 21.6507073046963505 15.7699913344822278
 16.2209599155816733 21.6507073046963505 18.6549870017233417
 16.2209599155816733 21.6507073046963505 21.5399826689644556
 16.2209599155816733 21.6507073046963505 24.4249783362055695
 16.2209599155816733 21.6507073046963505 27.3099740034466834
 16.2209599155816733 21.6507073046963505 30.1949696706877972
 16.2209599155816733 21.6507073046963505 33.0799653379289111
 17.1285857353045685 18.8573222614200020 12.8849956672411139
 17.1285857353045685 18.8573222614200020 15.7699913344822278
 17.1285857353045685 18.8573222614200020 18.6549870017233417
 17.1285857353045685 18.8573222614200020 21.5399826689644556
 17.1285857353045685 18.8573222614200020 24.4249783362055695
 17.1285857353045685 18.8573222614200020 27.3099740034466834
 17.1285857353045685 18.8573222614200020 30.1949696706877972
 17.1285857353045685 18.8573222614200020 33.0799653379289111
 18.0362115550274602 16.0639372181436570 12.8849956672411139
 18.0362115550274602 16.0639372181436570 15.7699913344822278
 18.0362115550274602 16.0639372181436570 18.6549870017233417
 18.0362115550274602 16.0639372181436570 21.5399826689644556
 18.0362115550274602 16.0639372181436570 24.4249783362055695
 18.0362115550274602 16.0639372181436570 27.3099740034466834
 18.0362115550274602 16.0639372181436570 30.1949696706877972
 18.0362115550274602 16.0639372181436570 33.0799653379289111
 20.9733504057847178 16.0639372181436570 12.8849956672411139
 20.9733504057847178 16.0639372181436570 15.7699913344822278
 20.9733504057847178 16.0639372181436570 18.6549870017233417
 20.9733504057847178 16.0639372181436570 21.5399826689644556
 20.9733504057847178 16.0639372181436570 24.4249783362055695
 20.9733504057847178 16.0639372181436570 27.3099740034466834
 20.9733504057847178 16.0639372181436570 30.1949696706877972
 20.9733504057847178 16.0639372181436570 33.0799653379289111
 23.9104892565419718 16.0639372181436570 12.8849956672411139
 23.9104892565419718 16.0639372181436570 15.7699913344822278
 23.9104892565419718 16.0639372181436570 18.6549870017233417
 23.9104892565419718 16.0639372181436570 21.5399826689644556
 23.9104892565419718 16.0639372181436570 24.4249783362055695
 23.9104892565419718 16.0639372181436570 27.3099740034466834
 23.9104892565419718 16.0639372181436570 30.1949696706877972
 23.9104892565419718 16.0639372181436570 33.0799653379289111
 24.8181150762648670 18.8573222614200020 12.8849956672411139
 24.8181150762648670 18.8573222614200020 15.7699913344822278
 24.8181150762648670 18.8573222614200020 18.6549870017233417
 24.8181150762648670 18.8573222614200020 21.5399826689644556
 24.8181150762648670 18.8573222614200020 24.4249783362055695
 24.8181150762648670 18.8573222614200020 27.3099740034466834
 24.8181150762648670 18.8573222614200020 30.1949696706877972
 24.8181150762648670 18.8573222614200020 33.0799653379289111
 28.1019361410892863 22.4227799419248122 14.3274935008616708
 28.1019361410892863 22.4227799419248122 17.2124891681027847
 28.1019361410892863 22.4227799419248122 20.0974848353438986
 28.1019361410892863 22.4227799419248122 22.9824805025850125
 28.1019361410892863 22.4227799419248122 25.8674761698261264
 28.1019361410892863 22.4227799419248122 28.7524718370672403
 28.1019361410892863 22.4227799419248122 31.6374675043083542
 25.7257408959877623 24.1491868423351903 14.3274935008616708
 25.7257408959877623 24.1491868423351903 17.2124891681027847
 25.7257408959877623 24.1491868423351903 20.0974848353438986
 25.7257408959877623 24.1491868423351903 22.9824805025850125
 25.7257408959877623 24.1491868423351903 25.8674761698261264
 25.7257408959877623 24.1491868423351903 28.7524718370672403
 25.7257408959877623 24.1491868423351903 31.6374675043083542
 23.3495456508862418 25.8755937427455684 14.3274935008616708
 23.3495456508862418 25.8755937427455684 17.2124891681027847
 23.3495456508862418 25.8755937427455684 20.0974848353438986
 23.3495456508862418 25.8755937427455684 22.9824805025850125
 23.3495456508862418 25.8755937427455684 25.8674761698261264
 23.3495456508862418 25.8755937427455684 28.7524718370672403
 23.3495456508862418 25.8755937427455684 31.6374675043083542
 20.9733504057847178 27.6020006431559466 14.3274935008616708
 20.9733504057847178 27.6020006431559466 17.2124891681027847
 20.9733504057847178 27.6020006431559466 20.0974848353438986
 20.9733504057847178 27.6020006431559466 22.9824805025850125
 20.9733504057847178 27.6020006431559466 25.8674761698261264
 20.9733504057847178 27.6020006431559466 28.7524718370672403
 20.9733504057847178 27.6020006431559466 31.6374675043083542
 18.5971551606831937 25.8755937427455720 14.3274935008616708
 18.5971551606831937 25.8755937427455720 17.2124891681027847
 18.5971551606831937 25.8755937427455720 20.0974848353438986
 18.5971551606831937 25.8755937427455720 22.9824805025850125
 18.5971551606831937 25.8755937427455720 25.8674761698261264
 18.5971551606831937 25.8755937427455720 28.7524718370672403
 18.5971551606831937 25.8755937427455720 31.6374675043083542
 16.2209599155816733 24.1491868423351903 14.3274935008616708
 16.2209599155816733 24.1491868423351903 17.2124891681027847
 16.2209599155816733 24.1491868423351903 20.0974848353438986
 16.2209599155816733 24.1491868423351903 22.9824805025850125
 16.2209599155816733 24.1491868423351903 25.8674761698261264
 16.2209599155816733 24.1491868423351903 28.7524718370672403
 16.2209599155816733 24.1491868423351903 31.6374675043083542
 13.8447646704801492 22.4227799419248122 14.3274935008616708
 13.8447646704801492 22.4227799419248122 17.2124891681027847
 13.8447646704801492 22.4227799419248122 20.0974848353438986
 13.8447646704801492 22.4227799419248122 22.9824805025850125
 13.8447646704801492 22.4227799419248122 25.8674761698261264
 13.8447646704801492 22.4227799419248122 28.7524718370672403
 13.8447646704801492 22.4227799419248122 31.6374675043083542
 14.7523904902030445 19.6293948986484672 14.3274935008616708
 14.7523904902030445 19.6293948986484672 17.2124891681027847
 14.7523904902030445 19.6293948986484672 20.0974848353438986
 14.7523904902030445 19.6293948986484672 22.9824805025850125
 14.7523904902030445 19.6293948986484672 25.8674761698261264
 14.7523904902030445 19.6293948986484672 28.7524718370672403
 14.7523904902030445 19.6293948986484672 31.6374675043083542
 15.6600163099259380 16.8360098553721187 14.3274935008616708
 15.6600163099259380 16.8360098553721187 17.2124891681027847
 15.6600163099259380 16.8360098553721187 20.0974848353438986
 15.6600163099259380 16.8360098553721187 22.9824805025850125
 15.6600163099259380 16.8360098553721187 25.8674761698261264
 15.6600163099259380 16.8360098553721187 28.7524718370672403
 15.6600163099259380 16.8360098553721187 31.6374675043083542
 16.5676421296488314 14.0426248120957720 14.3274935008616708
 16.5676421296488314 14.0426248120957720 17.2124891681027847
 16.5676421296488314 14.0426248120957720 20.0974848353438986
 16.5676421296488314 14.0426248120957720 22.9824805025850125
 16.5676421296488314 14.0426248120957720 25.8674761698261264
 16.5676421296488314 14.0426248120957720 28.7524718370672403
 16.5676421296488314 14.0426248120957720 31.6374675043083542
 19.5047809804060890 14.0426248120957720 14.3274935008616708
 19.5047809804060890 14.0426248120957720 17.2124891681027847
 19.5047809804060890 14.0426248120957720 20.0974848353438986
 19.5047809804060890 14.0426248120957720 22.9824805025850125
 19.5047809804060890 14.0426248120957720 25.8674761698261264
 19.5047809804060890 14.0426248120957720 28.7524718370672403
 19.5047809804060890 14.0426248120957720 31.6374675043083542
 22.4419198311633465 14.0426248120957720 14.3274935008616708
 22.4419198311633465 14.0426248120957720 17.2124891681027847
 22.4419198311633465 14.0426248120957720 20.0974848353438986
 22.4419198311633465 14.0426248120957720 22.9824805025850125
 22.4419198311633465 14.0426248120957720 25.8674761698261264
 22.4419198311633465 14.0426248120957720 28.7524718370672403
 22.4419198311633465 14.0426248120957720 31.6374675043083542
 25.3790586819206005 14.0426248120957702 14.3274935008616708
 25.3790586819206005 14.0426248120957702 17.2124891681027847
 25.3790586819206005 14.0426248120957702 20.0974848353438986
 25.3790586819206005 14.0426248120957702 22.9824805025850125
 25.3790586819206005 14.0426248120957702 25.8674761698261264
 25.3790586819206005 14.0426248120957702 28.7524718370672403
 25.3790586819206005 14.0426248120957702 31.6374675043083542
 26.2866845016434958 16.8360098553721187 14.3274935008616708
 26.2866845016434958 16.8360098553721187 17.2124891681027847
 26.2866845016434958 16.8360098553721187 20.0974848353438986
 26.2866845016434958 16.8360098553721187 22.9824805025850125
 26.2866845016434958 16.8360098553721187 25.8674761698261264
 26.2866845016434958 16.8360098553721187 28.7524718370672403
 26.2866845016434958 16.8360098553721187 31.6374675043083542
 27.1943103213663910 19.6293948986484637 14.3274935008616708
 27.1943103213663910 19.6293948986484637 17.2124891681027847
 27.1943103213663910 19.6293948986484637 20.0974848353438986
 27.1943103213663910 19.6293948986484637 22.9824805025850125
 27.1943103213663910 19.6293948986484637 25.8674761698261264
 27.1943103213663910 19.6293948986484637 28.7524718370672403
 27.1943103213663910 19.6293948986484637 31.6374675043083542
 30.4781313861908103 23.1948525791532738 15.7699913344822278
 30.4781313861908103 23.1948525791532738 18.6549870017233417
 30.4781313861908103 23.1948525791532738 21.5399826689644556
 30.4781313861908103 23.1948525791532738 24.4249783362055695
 30.4781313861908103 23.1948525791532738 27.3099740034466834
 30.4781313861908103 23.1948525791532738 30.1949696706877972
 28.1019361410892863 24.9212594795636520 15.7699913344822278
 28.1019361410892863 24.9212594795636520 18.6549870017233417
 28.1019361410892863 24.9212594795636520 21.5399826689644556
 28.1019361410892863 24.9212594795636520 24.4249783362055695
 28.1019361410892863 24.9212594795636520 27.3099740034466834
 28.1019361410892863 24.9212594795636520 30.1949696706877972
 25.7257408959877623 26.6476663799740336 15.7699913344822278
 25.7257408959877623 26.6476663799740336 18.6549870017233417
 25.7257408959877623 26.6476663799740336 21.5399826689644556
 25.7257408959877623 26.6476663799740336 24.4249783362055695
 25.7257408959877623 26.6476663799740336 27.3099740034466834
 25.7257408959877623 26.6476663799740336 30.1949696706877972
 23.3495456508862418 28.3740732803844118 15.7699913344822278
 23.3495456508862418 28.3740732803844118 18.6549870017233417
 23.3495456508862418 28.3740732803844118 21.5399826689644556
 23.3495456508862418 28.3740732803844118 24.4249783362055695
 23.3495456508862418 28.3740732803844118 27.3099740034466834
 23.3495456508862418 28.3740732803844118 30.1949696706877972
 20.9733504057847178 30.1004801807947899 15.7699913344822278
 20.9733504057847178 30.1004801807947899 18.6549870017233417
 20.9733504057847178 30.1004801807947899 21.5399826689644556
 20.9733504057847178 30.1004801807947899 24.4249783362055695
 20.9733504057847178 30.1004801807947899 27.3099740034466834
 20.9733504057847178 30.1004801807947899 30.1949696706877972
 18.5971551606831937 28.3740732803844118 15.7699913344822278
 18.5971551606831937 28.3740732803844118 18.6549870017233417
 18.5971551606831937 28.3740732803844118 21.5399826689644556
 18.5971551606831937 28.3740732803844118 24.4249783362055695
 18.5971551606831937 28.3740732803844118 27.3099740034466834
 18.5971551606831937 28.3740732803844118 30.1949696706877972
 16.2209599155816733 26.6476663799740336 15.7699913344822278
 16.2209599155816733 26.6476663799740336 18.6549870017233417
 16.2209599155816733 26.6476663799740336 21.5399826689644556
 16.2209599155816733 26.6476663799740336 24.4249783362055695
 16.2209599155816733 26.6476663799740336 27.3099740034466834
 16.2209599155816733 26.6476663799740336 30.1949696706877972
 13.8447646704801492 24.9212594795636555 15.7699913344822278
 13.8447646704801492 24.9212594795636555 18.6549870017233417
 13.8447646704801492 24.9212594795636555 21.5399826689644556
 13.8447646704801492 24.9212594795636555 24.4249783362055695
 13.8447646704801492 24.9212594795636555 27.3099740034466834
 13.8447646704801492 24.9212594795636555 30.1949696706877972
 11.4685694253786270 23.1948525791532774 15.7699913344822278
 11.4685694253786270 23.1948525791532774 18.6549870017233417
 11.4685694253786270 23.1948525791532774 21.5399826689644556
 11.4685694253786270 23.1948525791532774 24.4249783362055695
 11.4685694253786270 23.1948525791532774 27.3099740034466834
 11.4685694253786270 23.1948525791532774 30.1949696706877972
 12.3761952451015205 20.4014675358769288 15.7699913344822278
 12.3761952451015205 20.4014675358769288 18.6549870017233417
 12.3761952451015205 20.4014675358769288 21.5399826689644556
 12.3761952451015205 20.4014675358769288 24.4249783362055695
 12.3761952451015205 20.4014675358769288 27.3099740034466834
 12.3761952451015205 20.4014675358769288 30.1949696706877972
 13.2838210648244157 17.6080824926005839 15.7699913344822278
 13.2838210648244157 17.6080824926005839 18.6549870017233417
 13.2838210648244157 17.6080824926005839 21.5399826689644556
 13.2838210648244157 17.6080824926005839 24.4249783362055695
 13.2838210648244157 17.6080824926005839 27.3099740034466834
 13.2838210648244157 17.6080824926005839 30.1949696706877972
 14.1914468845473110 14.8146974493242354 15.7699913344822278
 14.1914468845473110 14.8146974493242354 18.6549870017233417
 14.1914468845473110 14.8146974493242354 21.5399826689644556
 14.1914468845473110 14.8146974493242354 24.4249783362055695
 14.1914468845473110 14.8146974493242354 27.3099740034466834
 14.1914468845473110 14.8146974493242354 30.1949696706877972
 15.0990727042702044 12.0213124060478886 15.7699913344822278
 15.0990727042702044 12.0213124060478886 18.6549870017233417
 15.0990727042702044 12.0213124060478886 21.5399826689644556
 15.0990727042702044 12.0213124060478886 24.4249783362055695
 15.0990727042702044 12.0213124060478886 27.3099740034466834
 15.0990727042702044 12.0213124060478886 30.1949696706877972
 18.0362115550274602 12.0213124060478869 15.7699913344822278
 18.0362115550274602 12.0213124060478869 18.6549870017233417
 18.0362115550274602 12.0213124060478869 21.5399826689644556
 18.0362115550274602 12.0213124060478869 24.4249783362055695
 18.0362115550274602 12.0213124060478869 27.3099740034466834
 18.0362115550274602 12.0213124060478869 30.1949696706877972
 20.9733504057847178 12.0213124060478869 15.7699913344822278
 20.9733504057847178 12.0213124060478869 18.6549870017233417
 20.9733504057847178 12.0213124060478869 21.5399826689644556
 20.9733504057847178 12.0213124060478869 24.4249783362055695
 20.9733504057847178 12.0213124060478869 27.3099740034466834
 20.9733504057847178 12.0213124060478869 30.1949696706877972
 23.9104892565419718 12.0213124060478869 15.7699913344822278
 23.9104892565419718 12.0213124060478869 18.6549870017233417
 23.9104892565419718 12.0213124060478869 21.5399826689644556
 23.9104892565419718 12.0213124060478869 24.4249783362055695
 23.9104892565419718 12.0213124060478869 27.3099740034466834
 23.9104892565419718 12.0213124060478869 30.1949696706877972
 26.8476281072992293 12.0213124060478869 15.7699913344822278
 26.8476281072992293 12.0213124060478869 18.6549870017233417
 26.8476281072992293 12.0213124060478869 21.5399826689644556
 26.8476281072992293 12.0213124060478869 24.4249783362055695
 26.8476281072992293 12.0213124060478869 27.3099740034466834
 26.8476281072992293 12.0213124060478869 30.1949696706877972
 27.7552539270221246 14.8146974493242336 15.7699913344822278
 27.7552539270221246 14.8146974493242336 18.6549870017233417
 27.7552539270221246 14.8146974493242336 21.5399826689644556
 27.7552539270221246 14.8146974493242336 24.4249783362055695
 27.7552539270221246 14.8146974493242336 27.3099740034466834
 27.7552539270221246 14.8146974493242336 30.1949696706877972
 28.6628797467450198 17.6080824926005803 15.7699913344822278
 28.6628797467450198 17.6080824926005803 18.6549870017233417
 28.6628797467450198 17.6080824926005803 21.5399826689644556
 28.6628797467450198 17.6080824926005803 24.4249783362055695
 28.6628797467450198 17.6080824926005803 27.3099740034466834
 28.6628797467450198 17.6080824926005803 30.1949696706877972
 29.5705055664679151 20.4014675358769253 15.7699913344822278
 29.5705055664679151 20.4014675358769253 18.6549870017233417
 29.5705055664679151 20.4014675358769253 21.5399826689644556
 29.5705055664679151 20.4014675358769253 24.4249783362055695
 29.5705055664679151 20.4014675358769253 27.3099740034466834
 29.5705055664679151 20.4014675358769253 30.1949696706877972
 30.4781313861908103 25.6933321167921136 17.2124891681027847
 30.4781313861908103 25.6933321167921136 20.0974848353438986
 30.4781313861908103 25.6933321167921136 22.9824805025850125
 30.4781313861908103 25.6933321167921136 25.8674761698261264
 30.4781313861908103 25.6933321167921136 28.7524718370672403
 28.1019361410892863 27.4197390172024953 17.2124891681027847
 28.1019361410892863 27.4197390172024953 20.0974848353438986
 28.1019361410892863 27.4197390172024953 22.9824805025850125
 28.1019361410892863 27.4197390172024953 25.8674761698261264
 28.1019361410892863 27.4197390172024953 28.7524718370672403
 25.7257408959877623 29.1461459176128734 17.2124891681027847
 25.7257408959877623 29.1461459176128734 20.0974848353438986
 25.7257408959877623 29.1461459176128734 22.9824805025850125
 25.7257408959877623 29.1461459176128734 25.8674761698261264
 25.7257408959877623 29.1461459176128734 28.7524718370672403
 23.3495456508862418 30.8725528180232516 17.2124891681027847
 23.3495456508862418 30.8725528180232516 20.0974848353438986
 23.3495456508862418 30.8725528180232516 22.9824805025850125
 23.3495456508862418 30.8725528180232516 25.8674761698261264
 23.3495456508862418 30.8725528180232516 28.7524718370672403
 18.5971551606831937 30.8725528180232516 17.2124891681027847
 18.5971551606831937 30.8725528180232516 20.0974848353438986
 18.5971551606831937 30.8725528180232516 22.9824805025850125
 18.5971551606831937 30.8725528180232516 25.8674761698261264
 18.5971551606831937 30.8725528180232516 28.7524718370672403
 16.2209599155816733 29.1461459176128770 17.2124891681027847
 16.2209599155816733 29.1461459176128770 20.0974848353438986
 16.2209599155816733 29.1461459176128770 22.9824805025850125
 16.2209599155816733 29.1461459176128770 25.8674761698261264
 16.2209599155816733 29.1461459176128770 28.7524718370672403
 13.8447646704801492 27.4197390172024953 17.2124891681027847
 13.8447646704801492 27.4197390172024953 20.0974848353438986
 13.8447646704801492 27.4197390172024953 22.9824805025850125
 13.8447646704801492 27.4197390172024953 25.8674761698261264
 13.8447646704801492 27.4197390172024953 28.7524718370672403
 11.4685694253786270 25.6933321167921207 17.2124891681027847
 11.4685694253786270 25.6933321167921207 20.0974848353438986
 11.4685694253786270 25.6933321167921207 22.9824805025850125
 11.4685694253786270 25.6933321167921207 25.8674761698261264
 11.4685694253786270 25.6933321167921207 28.7524718370672403
  9.9999999999999982 21.1735401731053940 17.2124891681027847
  9.9999999999999982 21.1735401731053940 20.0974848353438986
  9.9999999999999982 21.1735401731053940 22.9824805025850125
  9.9999999999999982 21.1735401731053940 25.8674761698261264
  9.9999999999999982 21.1735401731053940 28.7524718370672403
 10.9076258197228917 18.3801551298290455 17.2124891681027847
 10.9076258197228917 18.3801551298290455 20.0974848353438986
 10.9076258197228917 18.3801551298290455 22.9824805025850125
 10.9076258197228917 18.3801551298290455 25.8674761698261264
 10.9076258197228917 18.3801551298290455 28.7524718370672403
 11.8152516394457869 15.5867700865526988 17.2124891681027847
 11.8152516394457869 15.5867700865526988 20.0974848353438986
 11.8152516394457869 15.5867700865526988 22.9824805025850125
 11.8152516394457869 15.5867700865526988 25.8674761698261264
 11.8152516394457869 15.5867700865526988 28.7524718370672403
 12.7228774591686822 12.7933850432763521 17.2124891681027847
 12.7228774591686822 12.7933850432763521 20.0974848353438986
 12.7228774591686822 12.7933850432763521 22.9824805025850125
 12.7228774591686822 12.7933850432763521 25.8674761698261264
 12.7228774591686822 12.7933850432763521 28.7524718370672403
 16.5676421296488314 10.0000000000000036 17.2124891681027847
 16.5676421296488314 10.0000000000000036 20.0974848353438986
 16.5676421296488314 10.0000000000000036 22.9824805025850125
 16.5676421296488314 10.0000000000000036 25.8674761698261264
 16.5676421296488314 10.0000000000000036 28.7524718370672403
 19.5047809804060890 10.0000000000000036 17.2124891681027847
 19.5047809804060890 10.0000000000000036 20.0974848353438986
 19.5047809804060890 10.0000000000000036 22.9824805025850125
 19.5047809804060890 10.0000000000000036 25.8674761698261264
 19.5047809804060890 10.0000000000000036 28.7524718370672403
 22.4419198311633430 10.0000000000000036 17.2124891681027847
 22.4419198311633430 10.0000000000000036 20.0974848353438986
 22.4419198311633430 10.0000000000000036 22.9824805025850125
 22.4419198311633430 10.0000000000000036 25.8674761698261264
 22.4419198311633430 10.0000000000000036 28.7524718370672403
 25.3790586819206005 10.0000000000000036 17.2124891681027847
 25.3790586819206005 10.0000000000000036 20.0974848353438986
 25.3790586819206005 10.0000000000000036 22.9824805025850125
 25.3790586819206005 10.0000000000000036 25.8674761698261264
 25.3790586819206005 10.0000000000000036 28.7524718370672403
 29.2238233524007498 12.7933850432763485 17.2124891681027847
 29.2238233524007498 12.7933850432763485 20.0974848353438986
 29.2238233524007498 12.7933850432763485 22.9824805025850125
 29.2238233524007498 12.7933850432763485 25.8674761698261264
 29.2238233524007498 12.7933850432763485 28.7524718370672403
 30.1314491721236450 15.5867700865526970 17.2124891681027847
 30.1314491721236450 15.5867700865526970 20.0974848353438986
 30.1314491721236450 15.5867700865526970 22.9824805025850125
 30.1314491721236450 15.5867700865526970 25.8674761698261264
 30.1314491721236450 15.5867700865526970 28.7524718370672403
 31.0390749918465403 18.3801551298290420 17.2124891681027847
 31.0390749918465403 18.3801551298290420 20.0974848353438986
 31.0390749918465403 18.3801551298290420 22.9824805025850125
 31.0390749918465403 18.3801551298290420 25.8674761698261264
 31.0390749918465403 18.3801551298290420 28.7524718370672403
 31.9467008115694355 21.1735401731053905 17.2124891681027847
 31.9467008115694355 21.1735401731053905 20.0974848353438986
 31.9467008115694355 21.1735401731053905 22.9824805025850125
 31.9467008115694355 21.1735401731053905 25.8674761698261264
 31.9467008115694355 21.1735401731053905 28.7524718370672403
