Au 
 1.0000000000000000
    65.7086532625846758    0.0000000000000000    0.0000000000000000
     0.0000000000000000   63.4715125364568777    0.0000000000000000
     0.0000000000000000    0.0000000000000000   54.6199480068933667
 Au 
 1648
Cartesian
 32.8543266312923379 30.2131240604788402 10.0000000000000000
 32.8543266312923379 30.2131240604788402 12.8849956672411139
 32.8543266312923379 30.2131240604788402 15.7699913344822278
 32.8543266312923379 30.2131240604788402 18.6549870017233417
 32.8543266312923379 30.2131240604788402 21.5399826689644556
 32.8543266312923379 30.2131240604788402 24.4249783362055695
 32.8543266312923379 30.2131240604788402 27.3099740034466834
 32.8543266312923379 30.2131240604788402 30.1949696706877972
 32.8543266312923379 30.2131240604788402 33.0799653379289111
 32.8543266312923379 30.2131240604788402 35.9649610051700250
 32.8543266312923379 30.2131240604788402 38.8499566724111389
 32.8543266312923379 30.2131240604788402 41.7349523396522528
 32.8543266312923379 30.2131240604788402 44.6199480068933667
 35.2305218763938583 30.9851966977073019 11.4424978336205569
 35.2305218763938583 30.9851966977073019 14.3274935008616708
 35.2305218763938583 30.9851966977073019 17.2124891681027847
 35.2305218763938583 30.9851966977073019 20.0974848353438986
 35.2305218763938583 30.9851966977073019 22.9824805025850125
 35.2305218763938583 30.9851966977073019 25.8674761698261264
 35.2305218763938583 30.9851966977073019 28.7524718370672403
 35.2305218763938583 30.9851966977073019 31.6374675043083542
 35.2305218763938583 30.9851966977073019 34.5224631715494681
 35.2305218763938583 30.9851966977073019 37.4074588387905820
 35.2305218763938583 30.9851966977073019 40.2924545060316959
 35.2305218763938583 30.9851966977073019 43.1774501732728098
 32.8543266312923379 32.7116035981176836 11.4424978336205569
 32.8543266312923379 32.7116035981176836 14.3274935008616708
 32.8543266312923379 32.7116035981176836 17.2124891681027847
 32.8543266312923379 32.7116035981176836 20.0974848353438986
 32.8543266312923379 32.7116035981176836 22.9824805025850125
 32.8543266312923379 32.7116035981176836 25.8674761698261264
 32.8543266312923379 32.7116035981176836 28.7524718370672403
 32.8543266312923379 32.7116035981176836 31.6374675043083542
 32.8543266312923379 32.7116035981176836 34.5224631715494681
 32.8543266312923379 32.7116035981176836 37.4074588387905820
 32.8543266312923379 32.7116035981176836 40.2924545060316959
 32.8543266312923379 32.7116035981176836 43.1774501732728098
 30.4781313861908139 30.9851966977073019 11.4424978336205569
 30.4781313861908139 30.9851966977073019 14.3274935008616708
 30.4781313861908139 30.9851966977073019 17.2124891681027847
 30.4781313861908139 30.9851966977073019 20.0974848353438986
 30.4781313861908139 30.9851966977073019 22.9824805025850125
 30.4781313861908139 30.9851966977073019 25.8674761698261264
 30.4781313861908139 30.9851966977073019 28.7524718370672403
 30.4781313861908139 30.9851966977073019 31.6374675043083542
 30.4781313861908139 30.9851966977073019 34.5224631715494681
 30.4781313861908139 30.9851966977073019 37.4074588387905820
 30.4781313861908139 30.9851966977073019 40.2924545060316959
 30.4781313861908139 30.9851966977073019 43.1774501732728098
 31.3857572059137091 28.1918116544309569 11.4424978336205569
 31.3857572059137091 28.1918116544309569 14.3274935008616708
 31.3857572059137091 28.1918116544309569 17.2124891681027847
 31.3857572059137091 28.1918116544309569 20.0974848353438986
 31.3857572059137091 28.1918116544309569 22.9824805025850125
 31.3857572059137091 28.1918116544309569 25.8674761698261264
 31.3857572059137091 28.1918116544309569 28.7524718370672403
 31.3857572059137091 28.1918116544309569 31.6374675043083542
 31.3857572059137091 28.1918116544309569 34.5224631715494681
 31.3857572059137091 28.1918116544309569 37.4074588387905820
 31.3857572059137091 28.1918116544309569 40.2924545060316959
 31.3857572059137091 28.1918116544309569 43.1774501732728098
 34.3228960566709631 28.1918116544309569 11.4424978336205569
 34.3228960566709631 28.1918116544309569 14.3274935008616708
 34.3228960566709631 28.1918116544309569 17.2124891681027847
 34.3228960566709631 28.1918116544309569 20.0974848353438986
 34.3228960566709631 28.1918116544309569 22.9824805025850125
 34.3228960566709631 28.1918116544309569 25.8674761698261264
 34.3228960566709631 28.1918116544309569 28.7524718370672403
 34.3228960566709631 28.1918116544309569 31.6374675043083542
 34.3228960566709631 28.1918116544309569 34.5224631715494681
 34.3228960566709631 28.1918116544309569 37.4074588387905820
 34.3228960566709631 28.1918116544309569 40.2924545060316959
 34.3228960566709631 28.1918116544309569 43.1774501732728098
 37.6067171214953859 31.7572693349357635 12.8849956672411139
 37.6067171214953859 31.7572693349357635 15.7699913344822278
 37.6067171214953859 31.7572693349357635 18.6549870017233417
 37.6067171214953859 31.7572693349357635 21.5399826689644556
 37.6067171214953859 31.7572693349357635 24.4249783362055695
 37.6067171214953859 31.7572693349357635 27.3099740034466834
 37.6067171214953859 31.7572693349357635 30.1949696706877972
 37.6067171214953859 31.7572693349357635 33.0799653379289111
 37.6067171214953859 31.7572693349357635 35.9649610051700250
 37.6067171214953859 31.7572693349357635 38.8499566724111389
 37.6067171214953859 31.7572693349357635 41.7349523396522528
 35.2305218763938583 33.4836762353461452 12.8849956672411139
 35.2305218763938583 33.4836762353461452 15.7699913344822278
 35.2305218763938583 33.4836762353461452 18.6549870017233417
 35.2305218763938583 33.4836762353461452 21.5399826689644556
 35.2305218763938583 33.4836762353461452 24.4249783362055695
 35.2305218763938583 33.4836762353461452 27.3099740034466834
 35.2305218763938583 33.4836762353461452 30.1949696706877972
 35.2305218763938583 33.4836762353461452 33.0799653379289111
 35.2305218763938583 33.4836762353461452 35.9649610051700250
 35.2305218763938583 33.4836762353461452 38.8499566724111389
 35.2305218763938583 33.4836762353461452 41.7349523396522528
 32.8543266312923379 35.2100831357565198 12.8849956672411139
 32.8543266312923379 35.2100831357565198 15.7699913344822278
 32.8543266312923379 35.2100831357565198 18.6549870017233417
 32.8543266312923379 35.2100831357565198 21.5399826689644556
 32.8543266312923379 35.2100831357565198 24.4249783362055695
 32.8543266312923379 35.2100831357565198 27.3099740034466834
 32.8543266312923379 35.2100831357565198 30.1949696706877972
 32.8543266312923379 35.2100831357565198 33.0799653379289111
 32.8543266312923379 35.2100831357565198 35.9649610051700250
 32.8543266312923379 35.2100831357565198 38.8499566724111389
 32.8543266312923379 35.2100831357565198 41.7349523396522528
 30.4781313861908139 33.4836762353461452 12.8849956672411139
 30.4781313861908139 33.4836762353461452 15.7699913344822278
 30.4781313861908139 33.4836762353461452 18.6549870017233417
 30.4781313861908139 33.4836762353461452 21.5399826689644556
 30.4781313861908139 33.4836762353461452 24.4249783362055695
 30.4781313861908139 33.4836762353461452 27.3099740034466834
 30.4781313861908139 33.4836762353461452 30.1949696706877972
 30.4781313861908139 33.4836762353461452 33.0799653379289111
 30.4781313861908139 33.4836762353461452 35.9649610051700250
 30.4781313861908139 33.4836762353461452 38.8499566724111389
 30.4781313861908139 33.4836762353461452 41.7349523396522528
 28.1019361410892934 31.7572693349357671 12.8849956672411139
 28.1019361410892934 31.7572693349357671 15.7699913344822278
 28.1019361410892934 31.7572693349357671 18.6549870017233417
 28.1019361410892934 31.7572693349357671 21.5399826689644556
 28.1019361410892934 31.7572693349357671 24.4249783362055695
 28.1019361410892934 31.7572693349357671 27.3099740034466834
 28.1019361410892934 31.7572693349357671 30.1949696706877972
 28.1019361410892934 31.7572693349357671 33.0799653379289111
 28.1019361410892934 31.7572693349357671 35.9649610051700250
 28.1019361410892934 31.7572693349357671 38.8499566724111389
 28.1019361410892934 31.7572693349357671 41.7349523396522528
 29.0095619608121851 28.9638842916594186 12.8849956672411139
 29.0095619608121851 28.9638842916594186 15.7699913344822278
 29.0095619608121851 28.9638842916594186 18.6549870017233417
 29.0095619608121851 28.9638842916594186 21.5399826689644556
 29.0095619608121851 28.9638842916594186 24.4249783362055695
 29.0095619608121851 28.9638842916594186 27.3099740034466834
 29.0095619608121851 28.9638842916594186 30.1949696706877972
 29.0095619608121851 28.9638842916594186 33.0799653379289111
 29.0095619608121851 28.9638842916594186 35.9649610051700250
 29.0095619608121851 28.9638842916594186 38.8499566724111389
 29.0095619608121851 28.9638842916594186 41.7349523396522528
 29.9171877805350803 26.1704992483830736 12.8849956672411139
 29.9171877805350803 26.1704992483830736 15.7699913344822278
 29.9171877805350803 26.1704992483830736 18.6549870017233417
 29.9171877805350803 26.1704992483830736 21.5399826689644556
 29.9171877805350803 26.1704992483830736 24.4249783362055695
 29.9171877805350803 26.1704992483830736 27.3099740034466834
 29.9171877805350803 26.1704992483830736 30.1949696706877972
 29.9171877805350803 26.1704992483830736 33.0799653379289111
 29.9171877805350803 26.1704992483830736 35.9649610051700250
 29.9171877805350803 26.1704992483830736 38.8499566724111389
 29.9171877805350803 26.1704992483830736 41.7349523396522528
 32.8543266312923379 26.1704992483830736 12.8849956672411139
 32.8543266312923379 26.1704992483830736 15.7699913344822278
 32.8543266312923379 26.1704992483830736 18.6549870017233417
 32.8543266312923379 26.1704992483830736 21.5399826689644556
 32.8543266312923379 26.1704992483830736 24.4249783362055695
 32.8543266312923379 26.1704992483830736 27.3099740034466834
 32.8543266312923379 26.1704992483830736 30.1949696706877972
 32.8543266312923379 26.1704992483830736 33.0799653379289111
 32.8543266312923379 26.1704992483830736 35.9649610051700250
 32.8543266312923379 26.1704992483830736 38.8499566724111389
 32.8543266312923379 26.1704992483830736 41.7349523396522528
 35.7914654820495954 26.1704992483830736 12.8849956672411139
 35.7914654820495954 26.1704992483830736 15.7699913344822278
 35.7914654820495954 26.1704992483830736 18.6549870017233417
 35.7914654820495954 26.1704992483830736 21.5399826689644556
 35.7914654820495954 26.1704992483830736 24.4249783362055695
 35.7914654820495954 26.1704992483830736 27.3099740034466834
 35.7914654820495954 26.1704992483830736 30.1949696706877972
 35.7914654820495954 26.1704992483830736 33.0799653379289111
 35.7914654820495954 26.1704992483830736 35.9649610051700250
 35.7914654820495954 26.1704992483830736 38.8499566724111389
 35.7914654820495954 26.1704992483830736 41.7349523396522528
 36.6990913017724907 28.9638842916594186 12.8849956672411139
 36.6990913017724907 28.9638842916594186 15.7699913344822278
 36.6990913017724907 28.9638842916594186 18.6549870017233417
 36.6990913017724907 28.9638842916594186 21.5399826689644556
 36.6990913017724907 28.9638842916594186 24.4249783362055695
 36.6990913017724907 28.9638842916594186 27.3099740034466834
 36.6990913017724907 28.9638842916594186 30.1949696706877972
 36.6990913017724907 28.9638842916594186 33.0799653379289111
 36.6990913017724907 28.9638842916594186 35.9649610051700250
 36.6990913017724907 28.9638842916594186 38.8499566724111389
 36.6990913017724907 28.9638842916594186 41.7349523396522528
 39.9829123665969064 32.5293419721642252 14.3274935008616708
 39.9829123665969064 32.5293419721642252 17.2124891681027847
 39.9829123665969064 32.5293419721642252 20.0974848353438986
 39.9829123665969064 32.5293419721642252 22.9824805025850125
 39.9829123665969064 32.5293419721642252 25.8674761698261264
 39.9829123665969064 32.5293419721642252 28.7524718370672403
 39.9829123665969064 32.5293419721642252 31.6374675043083542
 39.9829123665969064 32.5293419721642252 34.5224631715494681
 39.9829123665969064 32.5293419721642252 37.4074588387905820
 39.9829123665969064 32.5293419721642252 40.2924545060316959
 37.6067171214953859 34.2557488725746069 14.3274935008616708
 37.6067171214953859 34.2557488725746069 17.2124891681027847
 37.6067171214953859 34.2557488725746069 20.0974848353438986
 37.6067171214953859 34.2557488725746069 22.9824805025850125
 37.6067171214953859 34.2557488725746069 25.8674761698261264
 37.6067171214953859 34.2557488725746069 28.7524718370672403
 37.6067171214953859 34.2557488725746069 31.6374675043083542
 37.6067171214953859 34.2557488725746069 34.5224631715494681
 37.6067171214953859 34.2557488725746069 37.4074588387905820
 37.6067171214953859 34.2557488725746069 40.2924545060316959
 35.2305218763938583 35.9821557729849886 14.3274935008616708
 35.2305218763938583 35.9821557729849886 17.2124891681027847
 35.2305218763938583 35.9821557729849886 20.0974848353438986
 35.2305218763938583 35.9821557729849886 22.9824805025850125
 35.2305218763938583 35.9821557729849886 25.8674761698261264
 35.2305218763938583 35.9821557729849886 28.7524718370672403
 35.2305218763938583 35.9821557729849886 31.6374675043083542
 35.2305218763938583 35.9821557729849886 34.5224631715494681
 35.2305218763938583 35.9821557729849886 37.4074588387905820
 35.2305218763938583 35.9821557729849886 40.2924545060316959
 32.8543266312923379 37.7085626733953632 14.3274935008616708
 32.8543266312923379 37.7085626733953632 17.2124891681027847
 32.8543266312923379 37.7085626733953632 20.0974848353438986
 32.8543266312923379 37.7085626733953632 22.9824805025850125
 32.8543266312923379 37.7085626733953632 25.8674761698261264
 32.8543266312923379 37.7085626733953632 28.7524718370672403
 32.8543266312923379 37.7085626733953632 31.6374675043083542
 32.8543266312923379 37.7085626733953632 34.5224631715494681
 32.8543266312923379 37.7085626733953632 37.4074588387905820
 32.8543266312923379 37.7085626733953632 40.2924545060316959
 30.4781313861908174 35.9821557729849886 14.3274935008616708
 30.4781313861908174 35.9821557729849886 17.2124891681027847
 30.4781313861908174 35.9821557729849886 20.0974848353438986
 30.4781313861908174 35.9821557729849886 22.9824805025850125
 30.4781313861908174 35.9821557729849886 25.8674761698261264
 30.4781313861908174 35.9821557729849886 28.7524718370672403
 30.4781313861908174 35.9821557729849886 31.6374675043083542
 30.4781313861908174 35.9821557729849886 34.5224631715494681
 30.4781313861908174 35.9821557729849886 37.4074588387905820
 30.4781313861908174 35.9821557729849886 40.2924545060316959
 28.1019361410892934 34.2557488725746069 14.3274935008616708
 28.1019361410892934 34.2557488725746069 17.2124891681027847
 28.1019361410892934 34.2557488725746069 20.0974848353438986
 28.1019361410892934 34.2557488725746069 22.9824805025850125
 28.1019361410892934 34.2557488725746069 25.8674761698261264
 28.1019361410892934 34.2557488725746069 28.7524718370672403
 28.1019361410892934 34.2557488725746069 31.6374675043083542
 28.1019361410892934 34.2557488725746069 34.5224631715494681
 28.1019361410892934 34.2557488725746069 37.4074588387905820
 28.1019361410892934 34.2557488725746069 40.2924545060316959
 25.7257408959877694 32.5293419721642323 14.3274935008616708
 25.7257408959877694 32.5293419721642323 17.2124891681027847
 25.7257408959877694 32.5293419721642323 20.0974848353438986
 25.7257408959877694 32.5293419721642323 22.9824805025850125
 25.7257408959877694 32.5293419721642323 25.8674761698261264
 25.7257408959877694 32.5293419721642323 28.7524718370672403
 25.7257408959877694 32.5293419721642323 31.6374675043083542
 25.7257408959877694 32.5293419721642323 34.5224631715494681
 25.7257408959877694 32.5293419721642323 37.4074588387905820
 25.7257408959877694 32.5293419721642323 40.2924545060316959
 26.6333667157106646 29.7359569288878838 14.3274935008616708
 26.6333667157106646 29.7359569288878838 17.2124891681027847
 26.6333667157106646 29.7359569288878838 20.0974848353438986
 26.6333667157106646 29.7359569288878838 22.9824805025850125
 26.6333667157106646 29.7359569288878838 25.8674761698261264
 26.6333667157106646 29.7359569288878838 28.7524718370672403
 26.6333667157106646 29.7359569288878838 31.6374675043083542
 26.6333667157106646 29.7359569288878838 34.5224631715494681
 26.6333667157106646 29.7359569288878838 37.4074588387905820
 26.6333667157106646 29.7359569288878838 40.2924545060316959
 27.5409925354335599 26.9425718856115353 14.3274935008616708
 27.5409925354335599 26.9425718856115353 17.2124891681027847
 27.5409925354335599 26.9425718856115353 20.0974848353438986
 27.5409925354335599 26.9425718856115353 22.9824805025850125
 27.5409925354335599 26.9425718856115353 25.8674761698261264
 27.5409925354335599 26.9425718856115353 28.7524718370672403
 27.5409925354335599 26.9425718856115353 31.6374675043083542
 27.5409925354335599 26.9425718856115353 34.5224631715494681
 27.5409925354335599 26.9425718856115353 37.4074588387905820
 27.5409925354335599 26.9425718856115353 40.2924545060316959
 28.4486183551564551 24.1491868423351903 14.3274935008616708
 28.4486183551564551 24.1491868423351903 17.2124891681027847
 28.4486183551564551 24.1491868423351903 20.0974848353438986
 28.4486183551564551 24.1491868423351903 22.9824805025850125
 28.4486183551564551 24.1491868423351903 25.8674761698261264
 28.4486183551564551 24.1491868423351903 28.7524718370672403
 28.4486183551564551 24.1491868423351903 31.6374675043083542
 28.4486183551564551 24.1491868423351903 34.5224631715494681
 28.4486183551564551 24.1491868423351903 37.4074588387905820
 28.4486183551564551 24.1491868423351903 40.2924545060316959
 31.3857572059137091 24.1491868423351903 14.3274935008616708
 31.3857572059137091 24.1491868423351903 17.2124891681027847
 31.3857572059137091 24.1491868423351903 20.0974848353438986
 31.3857572059137091 24.1491868423351903 22.9824805025850125
 31.3857572059137091 24.1491868423351903 25.8674761698261264
 31.3857572059137091 24.1491868423351903 28.7524718370672403
 31.3857572059137091 24.1491868423351903 31.6374675043083542
 31.3857572059137091 24.1491868423351903 34.5224631715494681
 31.3857572059137091 24.1491868423351903 37.4074588387905820
 31.3857572059137091 24.1491868423351903 40.2924545060316959
 34.3228960566709631 24.1491868423351903 14.3274935008616708
 34.3228960566709631 24.1491868423351903 17.2124891681027847
 34.3228960566709631 24.1491868423351903 20.0974848353438986
 34.3228960566709631 24.1491868423351903 22.9824805025850125
 34.3228960566709631 24.1491868423351903 25.8674761698261264
 34.3228960566709631 24.1491868423351903 28.7524718370672403
 34.3228960566709631 24.1491868423351903 31.6374675043083542
 34.3228960566709631 24.1491868423351903 34.5224631715494681
 34.3228960566709631 24.1491868423351903 37.4074588387905820
 34.3228960566709631 24.1491868423351903 40.2924545060316959
 37.2600349074282207 24.1491868423351868 14.3274935008616708
 37.2600349074282207 24.1491868423351868 17.2124891681027847
 37.2600349074282207 24.1491868423351868 20.0974848353438986
 37.2600349074282207 24.1491868423351868 22.9824805025850125
 37.2600349074282207 24.1491868423351868 25.8674761698261264
 37.2600349074282207 24.1491868423351868 28.7524718370672403
 37.2600349074282207 24.1491868423351868 31.6374675043083542
 37.2600349074282207 24.1491868423351868 34.5224631715494681
 37.2600349074282207 24.1491868423351868 37.4074588387905820
 37.2600349074282207 24.1491868423351868 40.2924545060316959
 38.1676607271511159 26.9425718856115353 14.3274935008616708
 38.1676607271511159 26.9425718856115353 17.2124891681027847
 38.1676607271511159 26.9425718856115353 20.0974848353438986
 38.1676607271511159 26.9425718856115353 22.9824805025850125
 38.1676607271511159 26.9425718856115353 25.8674761698261264
 38.1676607271511159 26.9425718856115353 28.7524718370672403
 38.1676607271511159 26.9425718856115353 31.6374675043083542
 38.1676607271511159 26.9425718856115353 34.5224631715494681
 38.1676607271511159 26.9425718856115353 37.4074588387905820
 38.1676607271511159 26.9425718856115353 40.2924545060316959
 39.0752865468740112 29.7359569288878802 14.3274935008616708
 39.0752865468740112 29.7359569288878802 17.2124891681027847
 39.0752865468740112 29.7359569288878802 20.0974848353438986
 39.0752865468740112 29.7359569288878802 22.9824805025850125
 39.0752865468740112 29.7359569288878802 25.8674761698261264
 39.0752865468740112 29.7359569288878802 28.7524718370672403
 39.0752865468740112 29.7359569288878802 31.6374675043083542
 39.0752865468740112 29.7359569288878802 34.5224631715494681
 39.0752865468740112 29.7359569288878802 37.4074588387905820
 39.0752865468740112 29.7359569288878802 40.2924545060316959
 42.3591076116984269 33.3014146093926939 15.7699913344822278
 42.3591076116984269 33.3014146093926939 18.6549870017233417
 42.3591076116984269 33.3014146093926939 21.5399826689644556
 42.3591076116984269 33.3014146093926939 24.4249783362055695
 42.3591076116984269 33.3014146093926939 27.3099740034466834
 42.3591076116984269 33.3014146093926939 30.1949696706877972
 42.3591076116984269 33.3014146093926939 33.0799653379289111
 42.3591076116984269 33.3014146093926939 35.9649610051700250
 42.3591076116984269 33.3014146093926939 38.8499566724111389
 39.9829123665969064 35.0278215098030685 15.7699913344822278
 39.9829123665969064 35.0278215098030685 18.6549870017233417
 39.9829123665969064 35.0278215098030685 21.5399826689644556
 39.9829123665969064 35.0278215098030685 24.4249783362055695
 39.9829123665969064 35.0278215098030685 27.3099740034466834
 39.9829123665969064 35.0278215098030685 30.1949696706877972
 39.9829123665969064 35.0278215098030685 33.0799653379289111
 39.9829123665969064 35.0278215098030685 35.9649610051700250
 39.9829123665969064 35.0278215098030685 38.8499566724111389
 37.6067171214953859 36.7542284102134502 15.7699913344822278
 37.6067171214953859 36.7542284102134502 18.6549870017233417
 37.6067171214953859 36.7542284102134502 21.5399826689644556
 37.6067171214953859 36.7542284102134502 24.4249783362055695
 37.6067171214953859 36.7542284102134502 27.3099740034466834
 37.6067171214953859 36.7542284102134502 30.1949696706877972
 37.6067171214953859 36.7542284102134502 33.0799653379289111
 37.6067171214953859 36.7542284102134502 35.9649610051700250
 37.6067171214953859 36.7542284102134502 38.8499566724111389
 35.2305218763938583 38.4806353106238248 15.7699913344822278
 35.2305218763938583 38.4806353106238248 18.6549870017233417
 35.2305218763938583 38.4806353106238248 21.5399826689644556
 35.2305218763938583 38.4806353106238248 24.4249783362055695
 35.2305218763938583 38.4806353106238248 27.3099740034466834
 35.2305218763938583 38.4806353106238248 30.1949696706877972
 35.2305218763938583 38.4806353106238248 33.0799653379289111
 35.2305218763938583 38.4806353106238248 35.9649610051700250
 35.2305218763938583 38.4806353106238248 38.8499566724111389
 32.8543266312923379 40.2070422110342065 15.7699913344822278
 32.8543266312923379 40.2070422110342065 18.6549870017233417
 32.8543266312923379 40.2070422110342065 21.5399826689644556
 32.8543266312923379 40.2070422110342065 24.4249783362055695
 32.8543266312923379 40.2070422110342065 27.3099740034466834
 32.8543266312923379 40.2070422110342065 30.1949696706877972
 32.8543266312923379 40.2070422110342065 33.0799653379289111
 32.8543266312923379 40.2070422110342065 35.9649610051700250
 32.8543266312923379 40.2070422110342065 38.8499566724111389
 30.4781313861908174 38.4806353106238248 15.7699913344822278
 30.4781313861908174 38.4806353106238248 18.6549870017233417
 30.4781313861908174 38.4806353106238248 21.5399826689644556
 30.4781313861908174 38.4806353106238248 24.4249783362055695
 30.4781313861908174 38.4806353106238248 27.3099740034466834
 30.4781313861908174 38.4806353106238248 30.1949696706877972
 30.4781313861908174 38.4806353106238248 33.0799653379289111
 30.4781313861908174 38.4806353106238248 35.9649610051700250
 30.4781313861908174 38.4806353106238248 38.8499566724111389
 28.1019361410892934 36.7542284102134502 15.7699913344822278
 28.1019361410892934 36.7542284102134502 18.6549870017233417
 28.1019361410892934 36.7542284102134502 21.5399826689644556
 28.1019361410892934 36.7542284102134502 24.4249783362055695
 28.1019361410892934 36.7542284102134502 27.3099740034466834
 28.1019361410892934 36.7542284102134502 30.1949696706877972
 28.1019361410892934 36.7542284102134502 33.0799653379289111
 28.1019361410892934 36.7542284102134502 35.9649610051700250
 28.1019361410892934 36.7542284102134502 38.8499566724111389
 25.7257408959877694 35.0278215098030756 15.7699913344822278
 25.7257408959877694 35.0278215098030756 18.6549870017233417
 25.7257408959877694 35.0278215098030756 21.5399826689644556
 25.7257408959877694 35.0278215098030756 24.4249783362055695
 25.7257408959877694 35.0278215098030756 27.3099740034466834
 25.7257408959877694 35.0278215098030756 30.1949696706877972
 25.7257408959877694 35.0278215098030756 33.0799653379289111
 25.7257408959877694 35.0278215098030756 35.9649610051700250
 25.7257408959877694 35.0278215098030756 38.8499566724111389
 23.3495456508862489 33.3014146093926939 15.7699913344822278
 23.3495456508862489 33.3014146093926939 18.6549870017233417
 23.3495456508862489 33.3014146093926939 21.5399826689644556
 23.3495456508862489 33.3014146093926939 24.4249783362055695
 23.3495456508862489 33.3014146093926939 27.3099740034466834
 23.3495456508862489 33.3014146093926939 30.1949696706877972
 23.3495456508862489 33.3014146093926939 33.0799653379289111
 23.3495456508862489 33.3014146093926939 35.9649610051700250
 23.3495456508862489 33.3014146093926939 38.8499566724111389
 24.2571714706091406 30.5080295661163454 15.7699913344822278
 24.2571714706091406 30.5080295661163454 18.6549870017233417
 24.2571714706091406 30.5080295661163454 21.5399826689644556
 24.2571714706091406 30.5080295661163454 24.4249783362055695
 24.2571714706091406 30.5080295661163454 27.3099740034466834
 24.2571714706091406 30.5080295661163454 30.1949696706877972
 24.2571714706091406 30.5080295661163454 33.0799653379289111
 24.2571714706091406 30.5080295661163454 35.9649610051700250
 24.2571714706091406 30.5080295661163454 38.8499566724111389
 25.1647972903320358 27.7146445228400005 15.7699913344822278
 25.1647972903320358 27.7146445228400005 18.6549870017233417
 25.1647972903320358 27.7146445228400005 21.5399826689644556
 25.1647972903320358 27.7146445228400005 24.4249783362055695
 25.1647972903320358 27.7146445228400005 27.3099740034466834
 25.1647972903320358 27.7146445228400005 30.1949696706877972
 25.1647972903320358 27.7146445228400005 33.0799653379289111
 25.1647972903320358 27.7146445228400005 35.9649610051700250
 25.1647972903320358 27.7146445228400005 38.8499566724111389
 26.0724231100549311 24.9212594795636520 15.7699913344822278
 26.0724231100549311 24.9212594795636520 18.6549870017233417
 26.0724231100549311 24.9212594795636520 21.5399826689644556
 26.0724231100549311 24.9212594795636520 24.4249783362055695
 26.0724231100549311 24.9212594795636520 27.3099740034466834
 26.0724231100549311 24.9212594795636520 30.1949696706877972
 26.0724231100549311 24.9212594795636520 33.0799653379289111
 26.0724231100549311 24.9212594795636520 35.9649610051700250
 26.0724231100549311 24.9212594795636520 38.8499566724111389
 26.9800489297778228 22.1278744362873070 15.7699913344822278
 26.9800489297778228 22.1278744362873070 18.6549870017233417
 26.9800489297778228 22.1278744362873070 21.5399826689644556
 26.9800489297778228 22.1278744362873070 24.4249783362055695
 26.9800489297778228 22.1278744362873070 27.3099740034466834
 26.9800489297778228 22.1278744362873070 30.1949696706877972
 26.9800489297778228 22.1278744362873070 33.0799653379289111
 26.9800489297778228 22.1278744362873070 35.9649610051700250
 26.9800489297778228 22.1278744362873070 38.8499566724111389
 29.9171877805350803 22.1278744362873034 15.7699913344822278
 29.9171877805350803 22.1278744362873034 18.6549870017233417
 29.9171877805350803 22.1278744362873034 21.5399826689644556
 29.9171877805350803 22.1278744362873034 24.4249783362055695
 29.9171877805350803 22.1278744362873034 27.3099740034466834
 29.9171877805350803 22.1278744362873034 30.1949696706877972
 29.9171877805350803 22.1278744362873034 33.0799653379289111
 29.9171877805350803 22.1278744362873034 35.9649610051700250
 29.9171877805350803 22.1278744362873034 38.8499566724111389
 32.8543266312923379 22.1278744362873034 15.7699913344822278
 32.8543266312923379 22.1278744362873034 18.6549870017233417
 32.8543266312923379 22.1278744362873034 21.5399826689644556
 32.8543266312923379 22.1278744362873034 24.4249783362055695
 32.8543266312923379 22.1278744362873034 27.3099740034466834
 32.8543266312923379 22.1278744362873034 30.1949696706877972
 32.8543266312923379 22.1278744362873034 33.0799653379289111
 32.8543266312923379 22.1278744362873034 35.9649610051700250
 32.8543266312923379 22.1278744362873034 38.8499566724111389
 35.7914654820495954 22.1278744362873034 15.7699913344822278
 35.7914654820495954 22.1278744362873034 18.6549870017233417
 35.7914654820495954 22.1278744362873034 21.5399826689644556
 35.7914654820495954 22.1278744362873034 24.4249783362055695
 35.7914654820495954 22.1278744362873034 27.3099740034466834
 35.7914654820495954 22.1278744362873034 30.1949696706877972
 35.7914654820495954 22.1278744362873034 33.0799653379289111
 35.7914654820495954 22.1278744362873034 35.9649610051700250
 35.7914654820495954 22.1278744362873034 38.8499566724111389
 38.7286043328068459 22.1278744362873034 15.7699913344822278
 38.7286043328068459 22.1278744362873034 18.6549870017233417
 38.7286043328068459 22.1278744362873034 21.5399826689644556
 38.7286043328068459 22.1278744362873034 24.4249783362055695
 38.7286043328068459 22.1278744362873034 27.3099740034466834
 38.7286043328068459 22.1278744362873034 30.1949696706877972
 38.7286043328068459 22.1278744362873034 33.0799653379289111
 38.7286043328068459 22.1278744362873034 35.9649610051700250
 38.7286043328068459 22.1278744362873034 38.8499566724111389
 39.6362301525297411 24.9212594795636520 15.7699913344822278