Au 
 1.0000000000000000
    44.5412389643078654    0.0000000000000000    0.0000000000000000
     0.0000000000000000   44.5412389643078654    0.0000000000000000
     0.0000000000000000    0.0000000000000000   44.5412389643078654
 Au 
 561
Cartesian
 22.2706194821539327 22.2706194821539327 22.2706194821539327
 24.7247433785847193 22.2706194821539327 20.7538875015563811
 24.7247433785847193 22.2706194821539327 23.7873514627514844
 19.8164955857231462 22.2706194821539327 20.7538875015563811
 19.8164955857231462 22.2706194821539327 23.7873514627514844
 20.7538875015563811 24.7247433785847193 22.2706194821539327
 23.7873514627514844 24.7247433785847193 22.2706194821539327
 20.7538875015563811 19.8164955857231462 22.2706194821539327
 23.7873514627514844 19.8164955857231462 22.2706194821539327
 22.2706194821539327 20.7538875015563811 24.7247433785847193
 22.2706194821539327 23.7873514627514844 24.7247433785847193
 22.2706194821539327 20.7538875015563811 19.8164955857231462
 22.2706194821539327 23.7873514627514844 19.8164955857231462
 27.1788672750155058 22.2706194821539327 19.2371555209588294
 27.1788672750155058 22.2706194821539327 22.2706194821539327
 27.1788672750155058 22.2706194821539327 25.3040834433490360
 17.3623716892923596 22.2706194821539327 19.2371555209588294
 17.3623716892923596 22.2706194821539327 22.2706194821539327
 17.3623716892923596 22.2706194821539327 25.3040834433490360
 19.2371555209588294 27.1788672750155058 22.2706194821539327
 22.2706194821539327 27.1788672750155058 22.2706194821539327
 25.3040834433490360 27.1788672750155058 22.2706194821539327
 19.2371555209588294 17.3623716892923596 22.2706194821539327
 22.2706194821539327 17.3623716892923596 22.2706194821539327
 25.3040834433490360 17.3623716892923596 22.2706194821539327
 22.2706194821539327 19.2371555209588294 27.1788672750155058
 22.2706194821539327 22.2706194821539327 27.1788672750155058
 22.2706194821539327 25.3040834433490360 27.1788672750155058
 22.2706194821539327 19.2371555209588294 17.3623716892923596
 22.2706194821539327 22.2706194821539327 17.3623716892923596
 22.2706194821539327 25.3040834433490360 17.3623716892923596
 24.7247433785847193 20.7538875015563811 26.2414753591822709
 24.7247433785847193 23.7873514627514844 26.2414753591822709
 24.7247433785847193 20.7538875015563811 18.2997636051255945
 24.7247433785847193 23.7873514627514844 18.2997636051255945
 19.8164955857231462 20.7538875015563811 26.2414753591822709
 19.8164955857231462 23.7873514627514844 26.2414753591822709
 19.8164955857231462 20.7538875015563811 18.2997636051255945
 19.8164955857231462 23.7873514627514844 18.2997636051255945
 26.2414753591822709 24.7247433785847193 20.7538875015563811
 26.2414753591822709 24.7247433785847193 23.7873514627514844
 18.2997636051255945 24.7247433785847193 20.7538875015563811
 18.2997636051255945 24.7247433785847193 23.7873514627514844
 26.2414753591822709 19.8164955857231462 20.7538875015563811
 26.2414753591822709 19.8164955857231462 23.7873514627514844
 18.2997636051255945 19.8164955857231462 20.7538875015563811
 18.2997636051255945 19.8164955857231462 23.7873514627514844
 20.7538875015563811 26.2414753591822709 24.7247433785847193
 23.7873514627514844 26.2414753591822709 24.7247433785847193
 20.7538875015563811 18.2997636051255945 24.7247433785847193
 23.7873514627514844 18.2997636051255945 24.7247433785847193
 20.7538875015563811 26.2414753591822709 19.8164955857231462
 23.7873514627514844 26.2414753591822709 19.8164955857231462
 20.7538875015563811 18.2997636051255945 19.8164955857231462
 23.7873514627514844 18.2997636051255945 19.8164955857231462
 29.6329911714462924 22.2706194821539327 17.7204235403612742
 29.6329911714462924 22.2706194821539327 20.7538875015563811
 29.6329911714462924 22.2706194821539327 23.7873514627514844
 29.6329911714462924 22.2706194821539327 26.8208154239465912
 14.9082477928615731 22.2706194821539327 17.7204235403612742
 14.9082477928615731 22.2706194821539327 20.7538875015563811
 14.9082477928615731 22.2706194821539327 23.7873514627514844
 14.9082477928615731 22.2706194821539327 26.8208154239465912
 17.7204235403612742 29.6329911714462924 22.2706194821539327
 20.7538875015563811 29.6329911714462924 22.2706194821539327
 23.7873514627514844 29.6329911714462924 22.2706194821539327
 26.8208154239465912 29.6329911714462924 22.2706194821539327
 17.7204235403612742 14.9082477928615731 22.2706194821539327
 20.7538875015563811 14.9082477928615731 22.2706194821539327
 23.7873514627514844 14.9082477928615731 22.2706194821539327
 26.8208154239465912 14.9082477928615731 22.2706194821539327
 22.2706194821539327 17.7204235403612742 29.6329911714462924
 22.2706194821539327 20.7538875015563811 29.6329911714462924
 22.2706194821539327 23.7873514627514844 29.6329911714462924
 22.2706194821539327 26.8208154239465912 29.6329911714462924
 22.2706194821539327 17.7204235403612742 14.9082477928615731
 22.2706194821539327 20.7538875015563811 14.9082477928615731
 22.2706194821539327 23.7873514627514844 14.9082477928615731
 22.2706194821539327 26.8208154239465912 14.9082477928615731
 27.1788672750155058 20.7538875015563811 27.7582073397798226
 24.7247433785847193 19.2371555209588294 28.6955992556130575
 27.1788672750155058 23.7873514627514844 27.7582073397798226
 24.7247433785847193 22.2706194821539327 28.6955992556130575
 24.7247433785847193 25.3040834433490360 28.6955992556130575
 27.1788672750155058 20.7538875015563811 16.7830316245280429
 24.7247433785847193 19.2371555209588294 15.8456397086948080
 27.1788672750155058 23.7873514627514844 16.7830316245280429
 24.7247433785847193 22.2706194821539327 15.8456397086948080
 24.7247433785847193 25.3040834433490360 15.8456397086948080
 17.3623716892923596 20.7538875015563811 27.7582073397798226
 19.8164955857231462 19.2371555209588294 28.6955992556130575
 17.3623716892923596 23.7873514627514844 27.7582073397798226
 19.8164955857231462 22.2706194821539327 28.6955992556130575
 19.8164955857231462 25.3040834433490360 28.6955992556130575
 17.3623716892923596 20.7538875015563811 16.7830316245280429
 19.8164955857231462 19.2371555209588294 15.8456397086948080
 17.3623716892923596 23.7873514627514844 16.7830316245280429
 19.8164955857231462 22.2706194821539327 15.8456397086948080
 19.8164955857231462 25.3040834433490360 15.8456397086948080
 27.7582073397798226 27.1788672750155058 20.7538875015563811
 28.6955992556130575 24.7247433785847193 19.2371555209588294
 27.7582073397798226 27.1788672750155058 23.7873514627514844
 28.6955992556130575 24.7247433785847193 22.2706194821539327
 28.6955992556130575 24.7247433785847193 25.3040834433490360
 16.7830316245280429 27.1788672750155058 20.7538875015563811
 15.8456397086948080 24.7247433785847193 19.2371555209588294
 16.7830316245280429 27.1788672750155058 23.7873514627514844
 15.8456397086948080 24.7247433785847193 22.2706194821539327
 15.8456397086948080 24.7247433785847193 25.3040834433490360
 27.7582073397798226 17.3623716892923596 20.7538875015563811
 28.6955992556130575 19.8164955857231462 19.2371555209588294
 27.7582073397798226 17.3623716892923596 23.7873514627514844
 28.6955992556130575 19.8164955857231462 22.2706194821539327
 28.6955992556130575 19.8164955857231462 25.3040834433490360
 16.7830316245280429 17.3623716892923596 20.7538875015563811
 15.8456397086948080 19.8164955857231462 19.2371555209588294
 16.7830316245280429 17.3623716892923596 23.7873514627514844
 15.8456397086948080 19.8164955857231462 22.2706194821539327
 15.8456397086948080 19.8164955857231462 25.3040834433490360
 20.7538875015563811 27.7582073397798226 27.1788672750155058
 19.2371555209588294 28.6955992556130575 24.7247433785847193
 23.7873514627514844 27.7582073397798226 27.1788672750155058
 22.2706194821539327 28.6955992556130575 24.7247433785847193
 25.3040834433490360 28.6955992556130575 24.7247433785847193
 20.7538875015563811 16.7830316245280429 27.1788672750155058
 19.2371555209588294 15.8456397086948080 24.7247433785847193
 23.7873514627514844 16.7830316245280429 27.1788672750155058
 22.2706194821539327 15.8456397086948080 24.7247433785847193
 25.3040834433490360 15.8456397086948080 24.7247433785847193
 20.7538875015563811 27.7582073397798226 17.3623716892923596
 19.2371555209588294 28.6955992556130575 19.8164955857231462
 23.7873514627514844 27.7582073397798226 17.3623716892923596
 22.2706194821539327 28.6955992556130575 19.8164955857231462
 25.3040834433490360 28.6955992556130575 19.8164955857231462
 20.7538875015563811 16.7830316245280429 17.3623716892923596
 19.2371555209588294 15.8456397086948080 19.8164955857231462
 23.7873514627514844 16.7830316245280429 17.3623716892923596
 22.2706194821539327 15.8456397086948080 19.8164955857231462
 25.3040834433490360 15.8456397086948080 19.8164955857231462
 26.2414753591822709 18.2997636051255945 26.2414753591822709
 26.2414753591822709 26.2414753591822709 26.2414753591822709
 26.2414753591822709 18.2997636051255945 18.2997636051255945
 26.2414753591822709 26.2414753591822709 18.2997636051255945
 18.2997636051255945 18.2997636051255945 26.2414753591822709
 18.2997636051255945 26.2414753591822709 26.2414753591822709
 18.2997636051255945 18.2997636051255945 18.2997636051255945
 18.2997636051255945 26.2414753591822709 18.2997636051255945
 32.0871150678770789 22.2706194821539327 16.2036915597637226
 32.0871150678770789 22.2706194821539327 19.2371555209588294
 32.0871150678770789 22.2706194821539327 22.2706194821539327
 32.0871150678770789 22.2706194821539327 25.3040834433490360
 32.0871150678770789 22.2706194821539327 28.3375474045441429
 12.4541238964307883 22.2706194821539327 16.2036915597637226
 12.4541238964307883 22.2706194821539327 19.2371555209588294
 12.4541238964307883 22.2706194821539327 22.2706194821539327
 12.4541238964307883 22.2706194821539327 25.3040834433490360
 12.4541238964307883 22.2706194821539327 28.3375474045441429
 16.2036915597637226 32.0871150678770789 22.2706194821539327
 19.2371555209588294 32.0871150678770789 22.2706194821539327
 22.2706194821539327 32.0871150678770789 22.2706194821539327
 25.3040834433490360 32.0871150678770789 22.2706194821539327
 28.3375474045441429 32.0871150678770789 22.2706194821539327
 16.2036915597637226 12.4541238964307883 22.2706194821539327
 19.2371555209588294 12.4541238964307883 22.2706194821539327
 22.2706194821539327 12.4541238964307883 22.2706194821539327
 25.3040834433490360 12.4541238964307883 22.2706194821539327
 28.3375474045441429 12.4541238964307883 22.2706194821539327
 22.2706194821539327 16.2036915597637226 32.0871150678770789
 22.2706194821539327 19.2371555209588294 32.0871150678770789
 22.2706194821539327 22.2706194821539327 32.0871150678770789
 22.2706194821539327 25.3040834433490360 32.0871150678770789
 22.2706194821539327 28.3375474045441429 32.0871150678770789
 22.2706194821539327 16.2036915597637226 12.4541238964307883
 22.2706194821539327 19.2371555209588294 12.4541238964307883
 22.2706194821539327 22.2706194821539327 12.4541238964307883
 22.2706194821539327 25.3040834433490360 12.4541238964307883
 22.2706194821539327 28.3375474045441429 12.4541238964307883
 29.6329911714462924 20.7538875015563811 29.2749393203773778
 27.1788672750155058 19.2371555209588294 30.2123312362106091
 24.7247433785847193 17.7204235403612742 31.1497231520438440
 29.6329911714462924 23.7873514627514844 29.2749393203773778
 27.1788672750155058 22.2706194821539327 30.2123312362106091
 24.7247433785847193 20.7538875015563811 31.1497231520438440
 27.1788672750155058 25.3040834433490360 30.2123312362106091
 24.7247433785847193 23.7873514627514844 31.1497231520438440
 24.7247433785847193 26.8208154239465912 31.1497231520438440
 29.6329911714462924 20.7538875015563811 15.2662996439304877
 27.1788672750155058 19.2371555209588294 14.3289077280972563
 24.7247433785847193 17.7204235403612742 13.3915158122640214
 29.6329911714462924 23.7873514627514844 15.2662996439304877
 27.1788672750155058 22.2706194821539327 14.3289077280972563
 24.7247433785847193 20.7538875015563811 13.3915158122640214
 27.1788672750155058 25.3040834433490360 14.3289077280972563
 24.7247433785847193 23.7873514627514844 13.3915158122640214
 24.7247433785847193 26.8208154239465912 13.3915158122640214
 14.9082477928615731 20.7538875015563811 29.2749393203773778
 17.3623716892923596 19.2371555209588294 30.2123312362106091
 19.8164955857231462 17.7204235403612742 31.1497231520438440
 14.9082477928615731 23.7873514627514844 29.2749393203773778
 17.3623716892923596 22.2706194821539327 30.2123312362106091
 19.8164955857231462 20.7538875015563811 31.1497231520438440
 17.3623716892923596 25.3040834433490360 30.2123312362106091
 19.8164955857231462 23.7873514627514844 31.1497231520438440
 19.8164955857231462 26.8208154239465912 31.1497231520438440
 14.9082477928615731 20.7538875015563811 15.2662996439304877
 17.3623716892923596 19.2371555209588294 14.3289077280972563
 19.8164955857231462 17.7204235403612742 13.3915158122640214
 14.9082477928615731 23.7873514627514844 15.2662996439304877
 17.3623716892923596 22.2706194821539327 14.3289077280972563
 19.8164955857231462 20.7538875015563811 13.3915158122640214
 17.3623716892923596 25.3040834433490360 14.3289077280972563
 19.8164955857231462 23.7873514627514844 13.3915158122640214
 19.8164955857231462 26.8208154239465912 13.3915158122640214
 29.2749393203773778 29.6329911714462924 20.7538875015563811
 30.2123312362106091 27.1788672750155058 19.2371555209588294
 31.1497231520438440 24.7247433785847193 17.7204235403612742
 29.2749393203773778 29.6329911714462924 23.7873514627514844
 30.2123312362106091 27.1788672750155058 22.2706194821539327
 31.1497231520438440 24.7247433785847193 20.7538875015563811
 30.2123312362106091 27.1788672750155058 25.3040834433490360
 31.1497231520438440 24.7247433785847193 23.7873514627514844
 31.1497231520438440 24.7247433785847193 26.8208154239465912
 15.2662996439304877 29.6329911714462924 20.7538875015563811
 14.3289077280972563 27.1788672750155058 19.2371555209588294
 13.3915158122640214 24.7247433785847193 17.7204235403612742
 15.2662996439304877 29.6329911714462924 23.7873514627514844
 14.3289077280972563 27.1788672750155058 22.2706194821539327
 13.3915158122640214 24.7247433785847193 20.7538875015563811
 14.3289077280972563 27.1788672750155058 25.3040834433490360
 13.3915158122640214 24.7247433785847193 23.7873514627514844
 13.3915158122640214 24.7247433785847193 26.8208154239465912
 29.2749393203773778 14.9082477928615731 20.7538875015563811
 30.2123312362106091 17.3623716892923596 19.2371555209588294
 31.1497231520438440 19.8164955857231462 17.7204235403612742
 29.2749393203773778 14.9082477928615731 23.7873514627514844
 30.2123312362106091 17.3623716892923596 22.2706194821539327
 31.1497231520438440 19.8164955857231462 20.7538875015563811
 30.2123312362106091 17.3623716892923596 25.3040834433490360
 31.1497231520438440 19.8164955857231462 23.7873514627514844
 31.1497231520438440 19.8164955857231462 26.8208154239465912
 15.2662996439304877 14.9082477928615731 20.7538875015563811
 14.3289077280972563 17.3623716892923596 19.2371555209588294
 13.3915158122640214 19.8164955857231462 17.7204235403612742
 15.2662996439304877 14.9082477928615731 23.7873514627514844
 14.3289077280972563 17.3623716892923596 22.2706194821539327
 13.3915158122640214 19.8164955857231462 20.7538875015563811
 14.3289077280972563 17.3623716892923596 25.3040834433490360
 13.3915158122640214 19.8164955857231462 23.7873514627514844
 13.3915158122640214 19.8164955857231462 26.8208154239465912
 20.7538875015563811 29.2749393203773778 29.6329911714462924
 19.2371555209588294 30.2123312362106091 27.1788672750155058
 17.7204235403612742 31.1497231520438440 24.7247433785847193
 23.7873514627514844 29.2749393203773778 29.6329911714462924
 22.2706194821539327 30.2123312362106091 27.1788672750155058
 20.7538875015563811 31.1497231520438440 24.7247433785847193
 25.3040834433490360 30.2123312362106091 27.1788672750155058
 23.7873514627514844 31.1497231520438440 24.7247433785847193
 26.8208154239465912 31.1497231520438440 24.7247433785847193
 20.7538875015563811 15.2662996439304877 29.6329911714462924
 19.2371555209588294 14.3289077280972563 27.1788672750155058
 17.7204235403612742 13.3915158122640214 24.7247433785847193
 23.7873514627514844 15.2662996439304877 29.6329911714462924
 22.2706194821539327 14.3289077280972563 27.1788672750155058
 20.7538875015563811 13.3915158122640214 24.7247433785847193
 25.3040834433490360 14.3289077280972563 27.1788672750155058
 23.7873514627514844 13.3915158122640214 24.7247433785847193
 26.8208154239465912 13.3915158122640214 24.7247433785847193
 20.7538875015563811 29.2749393203773778 14.9082477928615731
 19.2371555209588294 30.2123312362106091 17.3623716892923596
 17.7204235403612742 31.1497231520438440 19.8164955857231462
 23.7873514627514844 29.2749393203773778 14.9082477928615731
 22.2706194821539327 30.2123312362106091 17.3623716892923596
 20.7538875015563811 31.1497231520438440 19.8164955857231462
 25.3040834433490360 30.2123312362106091 17.3623716892923596
 23.7873514627514844 31.1497231520438440 19.8164955857231462
 26.8208154239465912 31.1497231520438440 19.8164955857231462
 20.7538875015563811 15.2662996439304877 14.9082477928615731
 19.2371555209588294 14.3289077280972563 17.3623716892923596
 17.7204235403612742 13.3915158122640214 19.8164955857231462
 23.7873514627514844 15.2662996439304877 14.9082477928615731
 22.2706194821539327 14.3289077280972563 17.3623716892923596
 20.7538875015563811 13.3915158122640214 19.8164955857231462
 25.3040834433490360 14.3289077280972563 17.3623716892923596
 23.7873514627514844 13.3915158122640214 19.8164955857231462
 26.8208154239465912 13.3915158122640214 19.8164955857231462
 28.6955992556130575 18.2997636051255945 27.7582073397798226
 28.6955992556130575 26.2414753591822709 27.7582073397798226
 27.7582073397798226 15.8456397086948080 26.2414753591822709
 27.7582073397798226 28.6955992556130575 26.2414753591822709
 26.2414753591822709 16.7830316245280429 28.6955992556130575
 26.2414753591822709 27.7582073397798226 28.6955992556130575
 28.6955992556130575 18.2997636051255945 16.7830316245280429
 28.6955992556130575 26.2414753591822709 16.7830316245280429
 27.7582073397798226 15.8456397086948080 18.2997636051255945
 27.7582073397798226 28.6955992556130575 18.2997636051255945
 26.2414753591822709 16.7830316245280429 15.8456397086948080
 26.2414753591822709 27.7582073397798226 15.8456397086948080
 15.8456397086948080 18.2997636051255945 27.7582073397798226
 15.8456397086948080 26.2414753591822709 27.7582073397798226
 16.7830316245280429 15.8456397086948080 26.2414753591822709
 16.7830316245280429 28.6955992556130575 26.2414753591822709
 18.2997636051255945 16.7830316245280429 28.6955992556130575
 18.2997636051255945 27.7582073397798226 28.6955992556130575
 15.8456397086948080 18.2997636051255945 16.7830316245280429
 15.8456397086948080 26.2414753591822709 16.7830316245280429
 16.7830316245280429 15.8456397086948080 18.2997636051255945
 16.7830316245280429 28.6955992556130575 18.2997636051255945
 18.2997636051255945 16.7830316245280429 15.8456397086948080
 18.2997636051255945 27.7582073397798226 15.8456397086948080
 34.5412389643078654 22.2706194821539327 14.6869595791661709
 34.5412389643078654 22.2706194821539327 17.7204235403612742
 34.5412389643078654 22.2706194821539327 20.7538875015563811
 34.5412389643078654 22.2706194821539327 23.7873514627514844
 34.5412389643078654 22.2706194821539327 26.8208154239465912
 34.5412389643078654 22.2706194821539327 29.8542793851416945
 10.0000000000000018 22.2706194821539327 14.6869595791661709
 10.0000000000000018 22.2706194821539327 17.7204235403612742
 10.0000000000000018 22.2706194821539327 20.7538875015563811
 10.0000000000000018 22.2706194821539327 23.7873514627514844
 10.0000000000000018 22.2706194821539327 26.8208154239465912
 10.0000000000000018 22.2706194821539327 29.8542793851416945
 14.6869595791661709 34.5412389643078654 22.2706194821539327
 17.7204235403612742 34.5412389643078654 22.2706194821539327
 20.7538875015563811 34.5412389643078654 22.2706194821539327
 23.7873514627514844 34.5412389643078654 22.2706194821539327
 26.8208154239465912 34.5412389643078654 22.2706194821539327
 29.8542793851416945 34.5412389643078654 22.2706194821539327
 14.6869595791661709 10.0000000000000018 22.2706194821539327
 17.7204235403612742 10.0000000000000018 22.2706194821539327
 20.7538875015563811 10.0000000000000018 22.2706194821539327
 23.7873514627514844 10.0000000000000018 22.2706194821539327
 26.8208154239465912 10.0000000000000018 22.2706194821539327
 29.8542793851416945 10.0000000000000018 22.2706194821539327
 22.2706194821539327 14.6869595791661709 34.5412389643078654
 22.2706194821539327 17.7204235403612742 34.5412389643078654
 22.2706194821539327 20.7538875015563811 34.5412389643078654
 22.2706194821539327 23.7873514627514844 34.5412389643078654
 22.2706194821539327 26.8208154239465912 34.5412389643078654
 22.2706194821539327 29.8542793851416945 34.5412389643078654
 22.2706194821539327 14.6869595791661709 10.0000000000000018
 22.2706194821539327 17.7204235403612742 10.0000000000000018
 22.2706194821539327 20.7538875015563811 10.0000000000000018
 22.2706194821539327 23.7873514627514844 10.0000000000000018
 22.2706194821539327 26.8208154239465912 10.0000000000000018
 22.2706194821539327 29.8542793851416945 10.0000000000000018
 32.0871150678770789 20.7538875015563811 30.7916713009749294
 29.6329911714462924 19.2371555209588294 31.7290632168081643
 27.1788672750155058 17.7204235403612742 32.6664551326413957
 24.7247433785847193 16.2036915597637226 33.6038470484746341
 32.0871150678770789 23.7873514627514844 30.7916713009749294
 29.6329911714462924 22.2706194821539327 31.7290632168081643
 27.1788672750155058 20.7538875015563811 32.6664551326413957
 24.7247433785847193 19.2371555209588294 33.6038470484746341
 29.6329911714462924 25.3040834433490360 31.7290632168081643
 27.1788672750155058 23.7873514627514844 32.6664551326413957
 24.7247433785847193 22.2706194821539327 33.6038470484746341
 27.1788672750155058 26.8208154239465912 32.6664551326413957
 24.7247433785847193 25.3040834433490360 33.6038470484746341
 24.7247433785847193 28.3375474045441429 33.6038470484746341
 32.0871150678770789 20.7538875015563811 13.7495676633329360
 29.6329911714462924 19.2371555209588294 12.8121757474997029
 27.1788672750155058 17.7204235403612742 11.8747838316664698
 24.7247433785847193 16.2036915597637226 10.9373919158332349
 32.0871150678770789 23.7873514627514844 13.7495676633329360
 29.6329911714462924 22.2706194821539327 12.8121757474997029
 27.1788672750155058 20.7538875015563811 11.8747838316664698
 24.7247433785847193 19.2371555209588294 10.9373919158332349
 29.6329911714462924 25.3040834433490360 12.8121757474997029
 27.1788672750155058 23.7873514627514844 11.8747838316664698
 24.7247433785847193 22.2706194821539327 10.9373919158332349
 27.1788672750155058 26.8208154239465912 11.8747838316664698
 24.7247433785847193 25.3040834433490360 10.9373919158332349
 24.7247433785847193 28.3375474045441429 10.9373919158332349
 12.4541238964307883 20.7538875015563811 30.7916713009749294
 14.9082477928615731 19.2371555209588294 31.7290632168081643
 17.3623716892923596 17.7204235403612742 32.6664551326413957
 19.8164955857231462 16.2036915597637226 33.6038470484746341
 12.4541238964307883 23.7873514627514844 30.7916713009749294
 14.9082477928615731 22.2706194821539327 31.7290632168081643
 17.3623716892923596 20.7538875015563811 32.6664551326413957
 19.8164955857231462 19.2371555209588294 33.6038470484746341
 14.9082477928615731 25.3040834433490360 31.7290632168081643
 17.3623716892923596 23.7873514627514844 32.6664551326413957
 19.8164955857231462 22.2706194821539327 33.6038470484746341
 17.3623716892923596 26.8208154239465912 32.6664551326413957
 19.8164955857231462 25.3040834433490360 33.6038470484746341
 19.8164955857231462 28.3375474045441429 33.6038470484746341
 12.4541238964307883 20.7538875015563811 13.7495676633329360
 14.9082477928615731 19.2371555209588294 12.8121757474997029
 17.3623716892923596 17.7204235403612742 11.8747838316664698
 19.8164955857231462 16.2036915597637226 10.9373919158332349
 12.4541238964307883 23.7873514627514844 13.7495676633329360
 14.9082477928615731 22.2706194821539327 12.8121757474997029
 17.3623716892923596 20.7538875015563811 11.8747838316664698
 19.8164955857231462 19.2371555209588294 10.9373919158332349
 14.9082477928615731 25.3040834433490360 12.8121757474997029
 17.3623716892923596 23.7873514627514844 11.8747838316664698
 19.8164955857231462 22.2706194821539327 10.9373919158332349
 17.3623716892923596 26.8208154239465912 11.8747838316664698
 19.8164955857231462 25.3040834433490360 10.9373919158332349
 19.8164955857231462 28.3375474045441429 10.9373919158332349
 30.7916713009749294 32.0871150678770789 20.7538875015563811
 31.7290632168081643 29.6329911714462924 19.2371555209588294
 32.6664551326413957 27.1788672750155058 17.7204235403612742
 33.6038470484746341 24.7247433785847193 16.2036915597637226
 30.7916713009749294 32.0871150678770789 23.7873514627514844
 31.7290632168081643 29.6329911714462924 22.2706194821539327
 32.6664551326413957 27.1788672750155058 20.7538875015563811
 33.6038470484746341 24.7247433785847193 19.2371555209588294
 31.7290632168081643 29.6329911714462924 25.3040834433490360
 32.6664551326413957 27.1788672750155058 23.7873514627514844
 33.6038470484746341 24.7247433785847193 22.2706194821539327
 32.6664551326413957 27.1788672750155058 26.8208154239465912
 33.6038470484746341 24.7247433785847193 25.3040834433490360
 33.6038470484746341 24.7247433785847193 28.3375474045441429
 13.7495676633329360 32.0871150678770789 20.7538875015563811
 12.8121757474997029 29.6329911714462924 19.2371555209588294
 11.8747838316664698 27.1788672750155058 17.7204235403612742
 10.9373919158332349 24.7247433785847193 16.2036915597637226
 13.7495676633329360 32.0871150678770789 23.7873514627514844
 12.8121757474997029 29.6329911714462924 22.2706194821539327
 11.8747838316664698 27.1788672750155058 20.7538875015563811
 10.9373919158332349 24.7247433785847193 19.2371555209588294
 12.8121757474997029 29.6329911714462924 25.3040834433490360
 11.8747838316664698 27.1788672750155058 23.7873514627514844
 10.9373919158332349 24.7247433785847193 22.2706194821539327
 11.8747838316664698 27.1788672750155058 26.8208154239465912
 10.9373919158332349 24.7247433785847193 25.3040834433490360
 10.9373919158332349 24.7247433785847193 28.3375474045441429
 30.7916713009749294 12.4541238964307883 20.7538875015563811
 31.7290632168081643 14.9082477928615731 19.2371555209588294
 32.6664551326413957 17.3623716892923596 17.7204235403612742
 33.6038470484746341 19.8164955857231462 16.2036915597637226
 30.7916713009749294 12.4541238964307883 23.7873514627514844
 31.7290632168081643 14.9082477928615731 22.2706194821539327
 32.6664551326413957 17.3623716892923596 20.7538875015563811
 33.6038470484746341 19.8164955857231462 19.2371555209588294
 31.7290632168081643 14.9082477928615731 25.3040834433490360
 32.6664551326413957 17.3623716892923596 23.7873514627514844
 33.6038470484746341 19.8164955857231462 22.2706194821539327
 32.6664551326413957 17.3623716892923596 26.8208154239465912
 33.6038470484746341 19.8164955857231462 25.3040834433490360
 33.6038470484746341 19.8164955857231462 28.3375474045441429
 13.7495676633329360 12.4541238964307883 20.7538875015563811
 12.8121757474997029 14.9082477928615731 19.2371555209588294
 11.8747838316664698 17.3623716892923596 17.7204235403612742
 10.9373919158332349 19.8164955857231462 16.2036915597637226
 13.7495676633329360 12.4541238964307883 23.7873514627514844
 12.8121757474997029 14.9082477928615731 22.2706194821539327
 11.8747838316664698 17.3623716892923596 20.7538875015563811
 10.9373919158332349 19.8164955857231462 19.2371555209588294
 12.8121757474997029 14.9082477928615731 25.3040834433490360
 11.8747838316664698 17.3623716892923596 23.7873514627514844
 10.9373919158332349 19.8164955857231462 22.2706194821539327
 11.8747838316664698 17.3623716892923596 26.8208154239465912
 10.9373919158332349 19.8164955857231462 25.3040834433490360
 10.9373919158332349 19.8164955857231462 28.3375474045441429
 20.7538875015563811 30.7916713009749294 32.0871150678770789
 19.2371555209588294 31.7290632168081643 29.6329911714462924
 17.7204235403612742 32.6664551326413957 27.1788672750155058
 16.2036915597637226 33.6038470484746341 24.7247433785847193
 23.7873514627514844 30.7916713009749294 32.0871150678770789
 22.2706194821539327 31.7290632168081643 29.6329911714462924
 20.7538875015563811 32.6664551326413957 27.1788672750155058
 19.2371555209588294 33.6038470484746341 24.7247433785847193
 25.3040834433490360 31.7290632168081643 29.6329911714462924
 23.7873514627514844 32.6664551326413957 27.1788672750155058
 22.2706194821539327 33.6038470484746341 24.7247433785847193
 26.8208154239465912 32.6664551326413957 27.1788672750155058
 25.3040834433490360 33.6038470484746341 24.7247433785847193
 28.3375474045441429 33.6038470484746341 24.7247433785847193
 20.7538875015563811 13.7495676633329360 32.0871150678770789
 19.2371555209588294 12.8121757474997029 29.6329911714462924
 17.7204235403612742 11.8747838316664698 27.1788672750155058
 16.2036915597637226 10.9373919158332349 24.7247433785847193
 23.7873514627514844 13.7495676633329360 32.0871150678770789
 22.2706194821539327 12.8121757474997029 29.6329911714462924
 20.7538875015563811 11.8747838316664698 27.1788672750155058
 19.2371555209588294 10.9373919158332349 24.7247433785847193
 25.3040834433490360 12.8121757474997029 29.6329911714462924
 23.7873514627514844 11.8747838316664698 27.1788672750155058
 22.2706194821539327 10.9373919158332349 24.7247433785847193
 26.8208154239465912 11.8747838316664698 27.1788672750155058
 25.3040834433490360 10.9373919158332349 24.7247433785847193
 28.3375474045441429 10.9373919158332349 24.7247433785847193
 20.7538875015563811 30.7916713009749294 12.4541238964307883
 19.2371555209588294 31.7290632168081643 14.9082477928615731