Au 
 1.0000000000000000
    75.2134342429907576    0.0000000000000000    0.0000000000000000
     0.0000000000000000   72.5110964238303239    0.0000000000000000
     0.0000000000000000    0.0000000000000000   54.6199480068933667
 Au 
 1828
Cartesian
 37.6067171214953788 34.2557488725746069 10.0000000000000000
 37.6067171214953788 34.2557488725746069 12.8849956672411139
 37.6067171214953788 34.2557488725746069 15.7699913344822278
 37.6067171214953788 34.2557488725746069 18.6549870017233417
 37.6067171214953788 34.2557488725746069 21.5399826689644556
 37.6067171214953788 34.2557488725746069 24.4249783362055695
 37.6067171214953788 34.2557488725746069 27.3099740034466834
 37.6067171214953788 34.2557488725746069 30.1949696706877972
 37.6067171214953788 34.2557488725746069 33.0799653379289111
 37.6067171214953788 34.2557488725746069 35.9649610051700250
 37.6067171214953788 34.2557488725746069 38.8499566724111389
 37.6067171214953788 34.2557488725746069 41.7349523396522528
 37.6067171214953788 34.2557488725746069 44.6199480068933667
 39.9829123665968993 35.0278215098030685 11.4424978336205569
 39.9829123665968993 35.0278215098030685 14.3274935008616708
 39.9829123665968993 35.0278215098030685 17.2124891681027847
 39.9829123665968993 35.0278215098030685 20.0974848353438986
 39.9829123665968993 35.0278215098030685 22.9824805025850125
 39.9829123665968993 35.0278215098030685 25.8674761698261264
 39.9829123665968993 35.0278215098030685 28.7524718370672403
 39.9829123665968993 35.0278215098030685 31.6374675043083542
 39.9829123665968993 35.0278215098030685 34.5224631715494681
 39.9829123665968993 35.0278215098030685 37.4074588387905820
 39.9829123665968993 35.0278215098030685 40.2924545060316959
 39.9829123665968993 35.0278215098030685 43.1774501732728098
 37.6067171214953788 36.7542284102134502 11.4424978336205569
 37.6067171214953788 36.7542284102134502 14.3274935008616708
 37.6067171214953788 36.7542284102134502 17.2124891681027847
 37.6067171214953788 36.7542284102134502 20.0974848353438986
 37.6067171214953788 36.7542284102134502 22.9824805025850125
 37.6067171214953788 36.7542284102134502 25.8674761698261264
 37.6067171214953788 36.7542284102134502 28.7524718370672403
 37.6067171214953788 36.7542284102134502 31.6374675043083542
 37.6067171214953788 36.7542284102134502 34.5224631715494681
 37.6067171214953788 36.7542284102134502 37.4074588387905820
 37.6067171214953788 36.7542284102134502 40.2924545060316959
 37.6067171214953788 36.7542284102134502 43.1774501732728098
 35.2305218763938583 35.0278215098030685 11.4424978336205569
 35.2305218763938583 35.0278215098030685 14.3274935008616708
 35.2305218763938583 35.0278215098030685 17.2124891681027847
 35.2305218763938583 35.0278215098030685 20.0974848353438986
 35.2305218763938583 35.0278215098030685 22.9824805025850125
 35.2305218763938583 35.0278215098030685 25.8674761698261264
 35.2305218763938583 35.0278215098030685 28.7524718370672403
 35.2305218763938583 35.0278215098030685 31.6374675043083542
 35.2305218763938583 35.0278215098030685 34.5224631715494681
 35.2305218763938583 35.0278215098030685 37.4074588387905820
 35.2305218763938583 35.0278215098030685 40.2924545060316959
 35.2305218763938583 35.0278215098030685 43.1774501732728098
 36.1381476961167536 32.2344364665267236 11.4424978336205569
 36.1381476961167536 32.2344364665267236 14.3274935008616708
 36.1381476961167536 32.2344364665267236 17.2124891681027847
 36.1381476961167536 32.2344364665267236 20.0974848353438986
 36.1381476961167536 32.2344364665267236 22.9824805025850125
 36.1381476961167536 32.2344364665267236 25.8674761698261264
 36.1381476961167536 32.2344364665267236 28.7524718370672403
 36.1381476961167536 32.2344364665267236 31.6374675043083542
 36.1381476961167536 32.2344364665267236 34.5224631715494681
 36.1381476961167536 32.2344364665267236 37.4074588387905820
 36.1381476961167536 32.2344364665267236 40.2924545060316959
 36.1381476961167536 32.2344364665267236 43.1774501732728098
 39.0752865468740040 32.2344364665267236 11.4424978336205569
 39.0752865468740040 32.2344364665267236 14.3274935008616708
 39.0752865468740040 32.2344364665267236 17.2124891681027847
 39.0752865468740040 32.2344364665267236 20.0974848353438986
 39.0752865468740040 32.2344364665267236 22.9824805025850125
 39.0752865468740040 32.2344364665267236 25.8674761698261264
 39.0752865468740040 32.2344364665267236 28.7524718370672403
 39.0752865468740040 32.2344364665267236 31.6374675043083542
 39.0752865468740040 32.2344364665267236 34.5224631715494681
 39.0752865468740040 32.2344364665267236 37.4074588387905820
 39.0752865468740040 32.2344364665267236 40.2924545060316959
 39.0752865468740040 32.2344364665267236 43.1774501732728098
 42.3591076116984269 35.7998941470315302 12.8849956672411139
 42.3591076116984269 35.7998941470315302 15.7699913344822278
 42.3591076116984269 35.7998941470315302 18.6549870017233417
 42.3591076116984269 35.7998941470315302 21.5399826689644556
 42.3591076116984269 35.7998941470315302 24.4249783362055695
 42.3591076116984269 35.7998941470315302 27.3099740034466834
 42.3591076116984269 35.7998941470315302 30.1949696706877972
 42.3591076116984269 35.7998941470315302 33.0799653379289111
 42.3591076116984269 35.7998941470315302 35.9649610051700250
 42.3591076116984269 35.7998941470315302 38.8499566724111389
 42.3591076116984269 35.7998941470315302 41.7349523396522528
 39.9829123665968993 37.5263010474419119 12.8849956672411139
 39.9829123665968993 37.5263010474419119 15.7699913344822278
 39.9829123665968993 37.5263010474419119 18.6549870017233417
 39.9829123665968993 37.5263010474419119 21.5399826689644556
 39.9829123665968993 37.5263010474419119 24.4249783362055695
 39.9829123665968993 37.5263010474419119 27.3099740034466834
 39.9829123665968993 37.5263010474419119 30.1949696706877972
 39.9829123665968993 37.5263010474419119 33.0799653379289111
 39.9829123665968993 37.5263010474419119 35.9649610051700250
 39.9829123665968993 37.5263010474419119 38.8499566724111389
 39.9829123665968993 37.5263010474419119 41.7349523396522528
 37.6067171214953788 39.2527079478522865 12.8849956672411139
 37.6067171214953788 39.2527079478522865 15.7699913344822278
 37.6067171214953788 39.2527079478522865 18.6549870017233417
 37.6067171214953788 39.2527079478522865 21.5399826689644556
 37.6067171214953788 39.2527079478522865 24.4249783362055695
 37.6067171214953788 39.2527079478522865 27.3099740034466834
 37.6067171214953788 39.2527079478522865 30.1949696706877972
 37.6067171214953788 39.2527079478522865 33.0799653379289111
 37.6067171214953788 39.2527079478522865 35.9649610051700250
 37.6067171214953788 39.2527079478522865 38.8499566724111389
 37.6067171214953788 39.2527079478522865 41.7349523396522528
 35.2305218763938583 37.5263010474419119 12.8849956672411139
 35.2305218763938583 37.5263010474419119 15.7699913344822278
 35.2305218763938583 37.5263010474419119 18.6549870017233417
 35.2305218763938583 37.5263010474419119 21.5399826689644556
 35.2305218763938583 37.5263010474419119 24.4249783362055695
 35.2305218763938583 37.5263010474419119 27.3099740034466834
 35.2305218763938583 37.5263010474419119 30.1949696706877972
 35.2305218763938583 37.5263010474419119 33.0799653379289111
 35.2305218763938583 37.5263010474419119 35.9649610051700250
 35.2305218763938583 37.5263010474419119 38.8499566724111389
 35.2305218763938583 37.5263010474419119 41.7349523396522528
 32.8543266312923308 35.7998941470315302 12.8849956672411139
 32.8543266312923308 35.7998941470315302 15.7699913344822278
 32.8543266312923308 35.7998941470315302 18.6549870017233417
 32.8543266312923308 35.7998941470315302 21.5399826689644556
 32.8543266312923308 35.7998941470315302 24.4249783362055695
 32.8543266312923308 35.7998941470315302 27.3099740034466834
 32.8543266312923308 35.7998941470315302 30.1949696706877972
 32.8543266312923308 35.7998941470315302 33.0799653379289111
 32.8543266312923308 35.7998941470315302 35.9649610051700250
 32.8543266312923308 35.7998941470315302 38.8499566724111389
 32.8543266312923308 35.7998941470315302 41.7349523396522528
 33.7619524510152260 33.0065091037551852 12.8849956672411139
 33.7619524510152260 33.0065091037551852 15.7699913344822278
 33.7619524510152260 33.0065091037551852 18.6549870017233417
 33.7619524510152260 33.0065091037551852 21.5399826689644556
 33.7619524510152260 33.0065091037551852 24.4249783362055695
 33.7619524510152260 33.0065091037551852 27.3099740034466834
 33.7619524510152260 33.0065091037551852 30.1949696706877972
 33.7619524510152260 33.0065091037551852 33.0799653379289111
 33.7619524510152260 33.0065091037551852 35.9649610051700250
 33.7619524510152260 33.0065091037551852 38.8499566724111389
 33.7619524510152260 33.0065091037551852 41.7349523396522528
 34.6695782707381213 30.2131240604788402 12.8849956672411139
 34.6695782707381213 30.2131240604788402 15.7699913344822278
 34.6695782707381213 30.2131240604788402 18.6549870017233417
 34.6695782707381213 30.2131240604788402 21.5399826689644556
 34.6695782707381213 30.2131240604788402 24.4249783362055695
 34.6695782707381213 30.2131240604788402 27.3099740034466834
 34.6695782707381213 30.2131240604788402 30.1949696706877972
 34.6695782707381213 30.2131240604788402 33.0799653379289111
 34.6695782707381213 30.2131240604788402 35.9649610051700250
 34.6695782707381213 30.2131240604788402 38.8499566724111389
 34.6695782707381213 30.2131240604788402 41.7349523396522528
 37.6067171214953788 30.2131240604788402 12.8849956672411139
 37.6067171214953788 30.2131240604788402 15.7699913344822278
 37.6067171214953788 30.2131240604788402 18.6549870017233417
 37.6067171214953788 30.2131240604788402 21.5399826689644556
 37.6067171214953788 30.2131240604788402 24.4249783362055695
 37.6067171214953788 30.2131240604788402 27.3099740034466834
 37.6067171214953788 30.2131240604788402 30.1949696706877972
 37.6067171214953788 30.2131240604788402 33.0799653379289111
 37.6067171214953788 30.2131240604788402 35.9649610051700250
 37.6067171214953788 30.2131240604788402 38.8499566724111389
 37.6067171214953788 30.2131240604788402 41.7349523396522528
 40.5438559722526364 30.2131240604788402 12.8849956672411139
 40.5438559722526364 30.2131240604788402 15.7699913344822278
 40.5438559722526364 30.2131240604788402 18.6549870017233417
 40.5438559722526364 30.2131240604788402 21.5399826689644556
 40.5438559722526364 30.2131240604788402 24.4249783362055695
 40.5438559722526364 30.2131240604788402 27.3099740034466834
 40.5438559722526364 30.2131240604788402 30.1949696706877972
 40.5438559722526364 30.2131240604788402 33.0799653379289111
 40.5438559722526364 30.2131240604788402 35.9649610051700250
 40.5438559722526364 30.2131240604788402 38.8499566724111389
 40.5438559722526364 30.2131240604788402 41.7349523396522528
 41.4514817919755316 33.0065091037551852 12.8849956672411139
 41.4514817919755316 33.0065091037551852 15.7699913344822278
 41.4514817919755316 33.0065091037551852 18.6549870017233417
 41.4514817919755316 33.0065091037551852 21.5399826689644556
 41.4514817919755316 33.0065091037551852 24.4249783362055695
 41.4514817919755316 33.0065091037551852 27.3099740034466834
 41.4514817919755316 33.0065091037551852 30.1949696706877972
 41.4514817919755316 33.0065091037551852 33.0799653379289111
 41.4514817919755316 33.0065091037551852 35.9649610051700250
 41.4514817919755316 33.0065091037551852 38.8499566724111389
 41.4514817919755316 33.0065091037551852 41.7349523396522528
 44.7353028567999473 36.5719667842599918 14.3274935008616708
 44.7353028567999473 36.5719667842599918 17.2124891681027847
 44.7353028567999473 36.5719667842599918 20.0974848353438986
 44.7353028567999473 36.5719667842599918 22.9824805025850125
 44.7353028567999473 36.5719667842599918 25.8674761698261264
 44.7353028567999473 36.5719667842599918 28.7524718370672403
 44.7353028567999473 36.5719667842599918 31.6374675043083542
 44.7353028567999473 36.5719667842599918 34.5224631715494681
 44.7353028567999473 36.5719667842599918 37.4074588387905820
 44.7353028567999473 36.5719667842599918 40.2924545060316959
 42.3591076116984269 38.2983736846703735 14.3274935008616708
 42.3591076116984269 38.2983736846703735 17.2124891681027847
 42.3591076116984269 38.2983736846703735 20.0974848353438986
 42.3591076116984269 38.2983736846703735 22.9824805025850125
 42.3591076116984269 38.2983736846703735 25.8674761698261264
 42.3591076116984269 38.2983736846703735 28.7524718370672403
 42.3591076116984269 38.2983736846703735 31.6374675043083542
 42.3591076116984269 38.2983736846703735 34.5224631715494681
 42.3591076116984269 38.2983736846703735 37.4074588387905820
 42.3591076116984269 38.2983736846703735 40.2924545060316959
 39.9829123665968993 40.0247805850807552 14.3274935008616708
 39.9829123665968993 40.0247805850807552 17.2124891681027847
 39.9829123665968993 40.0247805850807552 20.0974848353438986
 39.9829123665968993 40.0247805850807552 22.9824805025850125
 39.9829123665968993 40.0247805850807552 25.8674761698261264
 39.9829123665968993 40.0247805850807552 28.7524718370672403
 39.9829123665968993 40.0247805850807552 31.6374675043083542
 39.9829123665968993 40.0247805850807552 34.5224631715494681
 39.9829123665968993 40.0247805850807552 37.4074588387905820
 39.9829123665968993 40.0247805850807552 40.2924545060316959
 37.6067171214953788 41.7511874854911298 14.3274935008616708
 37.6067171214953788 41.7511874854911298 17.2124891681027847
 37.6067171214953788 41.7511874854911298 20.0974848353438986
 37.6067171214953788 41.7511874854911298 22.9824805025850125
 37.6067171214953788 41.7511874854911298 25.8674761698261264
 37.6067171214953788 41.7511874854911298 28.7524718370672403
 37.6067171214953788 41.7511874854911298 31.6374675043083542
 37.6067171214953788 41.7511874854911298 34.5224631715494681
 37.6067171214953788 41.7511874854911298 37.4074588387905820
 37.6067171214953788 41.7511874854911298 40.2924545060316959
 35.2305218763938583 40.0247805850807552 14.3274935008616708
 35.2305218763938583 40.0247805850807552 17.2124891681027847
 35.2305218763938583 40.0247805850807552 20.0974848353438986
 35.2305218763938583 40.0247805850807552 22.9824805025850125
 35.2305218763938583 40.0247805850807552 25.8674761698261264
 35.2305218763938583 40.0247805850807552 28.7524718370672403
 35.2305218763938583 40.0247805850807552 31.6374675043083542
 35.2305218763938583 40.0247805850807552 34.5224631715494681
 35.2305218763938583 40.0247805850807552 37.4074588387905820
 35.2305218763938583 40.0247805850807552 40.2924545060316959
 32.8543266312923308 38.2983736846703735 14.3274935008616708
 32.8543266312923308 38.2983736846703735 17.2124891681027847
 32.8543266312923308 38.2983736846703735 20.0974848353438986
 32.8543266312923308 38.2983736846703735 22.9824805025850125
 32.8543266312923308 38.2983736846703735 25.8674761698261264
 32.8543266312923308 38.2983736846703735 28.7524718370672403
 32.8543266312923308 38.2983736846703735 31.6374675043083542
 32.8543266312923308 38.2983736846703735 34.5224631715494681
 32.8543266312923308 38.2983736846703735 37.4074588387905820
 32.8543266312923308 38.2983736846703735 40.2924545060316959
 30.4781313861908103 36.5719667842599989 14.3274935008616708
 30.4781313861908103 36.5719667842599989 17.2124891681027847
 30.4781313861908103 36.5719667842599989 20.0974848353438986
 30.4781313861908103 36.5719667842599989 22.9824805025850125
 30.4781313861908103 36.5719667842599989 25.8674761698261264
 30.4781313861908103 36.5719667842599989 28.7524718370672403
 30.4781313861908103 36.5719667842599989 31.6374675043083542
 30.4781313861908103 36.5719667842599989 34.5224631715494681
 30.4781313861908103 36.5719667842599989 37.4074588387905820
 30.4781313861908103 36.5719667842599989 40.2924545060316959
 31.3857572059137055 33.7785817409836469 14.3274935008616708
 31.3857572059137055 33.7785817409836469 17.2124891681027847
 31.3857572059137055 33.7785817409836469 20.0974848353438986
 31.3857572059137055 33.7785817409836469 22.9824805025850125
 31.3857572059137055 33.7785817409836469 25.8674761698261264
 31.3857572059137055 33.7785817409836469 28.7524718370672403
 31.3857572059137055 33.7785817409836469 31.6374675043083542
 31.3857572059137055 33.7785817409836469 34.5224631715494681
 31.3857572059137055 33.7785817409836469 37.4074588387905820
 31.3857572059137055 33.7785817409836469 40.2924545060316959
 32.2933830256366008 30.9851966977073019 14.3274935008616708
 32.2933830256366008 30.9851966977073019 17.2124891681027847
 32.2933830256366008 30.9851966977073019 20.0974848353438986
 32.2933830256366008 30.9851966977073019 22.9824805025850125
 32.2933830256366008 30.9851966977073019 25.8674761698261264
 32.2933830256366008 30.9851966977073019 28.7524718370672403
 32.2933830256366008 30.9851966977073019 31.6374675043083542
 32.2933830256366008 30.9851966977073019 34.5224631715494681
 32.2933830256366008 30.9851966977073019 37.4074588387905820
 32.2933830256366008 30.9851966977073019 40.2924545060316959
 33.2010088453594960 28.1918116544309569 14.3274935008616708
 33.2010088453594960 28.1918116544309569 17.2124891681027847
 33.2010088453594960 28.1918116544309569 20.0974848353438986
 33.2010088453594960 28.1918116544309569 22.9824805025850125
 33.2010088453594960 28.1918116544309569 25.8674761698261264
 33.2010088453594960 28.1918116544309569 28.7524718370672403
 33.2010088453594960 28.1918116544309569 31.6374675043083542
 33.2010088453594960 28.1918116544309569 34.5224631715494681
 33.2010088453594960 28.1918116544309569 37.4074588387905820
 33.2010088453594960 28.1918116544309569 40.2924545060316959
 36.1381476961167465 28.1918116544309569 14.3274935008616708
 36.1381476961167465 28.1918116544309569 17.2124891681027847
 36.1381476961167465 28.1918116544309569 20.0974848353438986
 36.1381476961167465 28.1918116544309569 22.9824805025850125
 36.1381476961167465 28.1918116544309569 25.8674761698261264
 36.1381476961167465 28.1918116544309569 28.7524718370672403
 36.1381476961167465 28.1918116544309569 31.6374675043083542
 36.1381476961167465 28.1918116544309569 34.5224631715494681
 36.1381476961167465 28.1918116544309569 37.4074588387905820
 36.1381476961167465 28.1918116544309569 40.2924545060316959
 39.0752865468740040 28.1918116544309569 14.3274935008616708
 39.0752865468740040 28.1918116544309569 17.2124891681027847
 39.0752865468740040 28.1918116544309569 20.0974848353438986
 39.0752865468740040 28.1918116544309569 22.9824805025850125
 39.0752865468740040 28.1918116544309569 25.8674761698261264
 39.0752865468740040 28.1918116544309569 28.7524718370672403
 39.0752865468740040 28.1918116544309569 31.6374675043083542
 39.0752865468740040 28.1918116544309569 34.5224631715494681
 39.0752865468740040 28.1918116544309569 37.4074588387905820
 39.0752865468740040 28.1918116544309569 40.2924545060316959
 42.0124253976312616 28.1918116544309534 14.3274935008616708
 42.0124253976312616 28.1918116544309534 17.2124891681027847
 42.0124253976312616 28.1918116544309534 20.0974848353438986
 42.0124253976312616 28.1918116544309534 22.9824805025850125
 42.0124253976312616 28.1918116544309534 25.8674761698261264
 42.0124253976312616 28.1918116544309534 28.7524718370672403
 42.0124253976312616 28.1918116544309534 31.6374675043083542
 42.0124253976312616 28.1918116544309534 34.5224631715494681
 42.0124253976312616 28.1918116544309534 37.4074588387905820
 42.0124253976312616 28.1918116544309534 40.2924545060316959
 42.9200512173541568 30.9851966977073019 14.3274935008616708
 42.9200512173541568 30.9851966977073019 17.2124891681027847
 42.9200512173541568 30.9851966977073019 20.0974848353438986
 42.9200512173541568 30.9851966977073019 22.9824805025850125
 42.9200512173541568 30.9851966977073019 25.8674761698261264
 42.9200512173541568 30.9851966977073019 28.7524718370672403
 42.9200512173541568 30.9851966977073019 31.6374675043083542
 42.9200512173541568 30.9851966977073019 34.5224631715494681
 42.9200512173541568 30.9851966977073019 37.4074588387905820
 42.9200512173541568 30.9851966977073019 40.2924545060316959
 43.8276770370770521 33.7785817409836469 14.3274935008616708
 43.8276770370770521 33.7785817409836469 17.2124891681027847
 43.8276770370770521 33.7785817409836469 20.0974848353438986
 43.8276770370770521 33.7785817409836469 22.9824805025850125
 43.8276770370770521 33.7785817409836469 25.8674761698261264
 43.8276770370770521 33.7785817409836469 28.7524718370672403
 43.8276770370770521 33.7785817409836469 31.6374675043083542
 43.8276770370770521 33.7785817409836469 34.5224631715494681
 43.8276770370770521 33.7785817409836469 37.4074588387905820
 43.8276770370770521 33.7785817409836469 40.2924545060316959
 47.1114981019014678 37.3440394214884606 15.7699913344822278
 47.1114981019014678 37.3440394214884606 18.6549870017233417
 47.1114981019014678 37.3440394214884606 21.5399826689644556
 47.1114981019014678 37.3440394214884606 24.4249783362055695
 47.1114981019014678 37.3440394214884606 27.3099740034466834
 47.1114981019014678 37.3440394214884606 30.1949696706877972
 47.1114981019014678 37.3440394214884606 33.0799653379289111
 47.1114981019014678 37.3440394214884606 35.9649610051700250
 47.1114981019014678 37.3440394214884606 38.8499566724111389
 44.7353028567999473 39.0704463218988352 15.7699913344822278
 44.7353028567999473 39.0704463218988352 18.6549870017233417
 44.7353028567999473 39.0704463218988352 21.5399826689644556
 44.7353028567999473 39.0704463218988352 24.4249783362055695
 44.7353028567999473 39.0704463218988352 27.3099740034466834
 44.7353028567999473 39.0704463218988352 30.1949696706877972
 44.7353028567999473 39.0704463218988352 33.0799653379289111
 44.7353028567999473 39.0704463218988352 35.9649610051700250
 44.7353028567999473 39.0704463218988352 38.8499566724111389
 42.3591076116984269 40.7968532223092168 15.7699913344822278
 42.3591076116984269 40.7968532223092168 18.6549870017233417
 42.3591076116984269 40.7968532223092168 21.5399826689644556
 42.3591076116984269 40.7968532223092168 24.4249783362055695
 42.3591076116984269 40.7968532223092168 27.3099740034466834
 42.3591076116984269 40.7968532223092168 30.1949696706877972
 42.3591076116984269 40.7968532223092168 33.0799653379289111
 42.3591076116984269 40.7968532223092168 35.9649610051700250
 42.3591076116984269 40.7968532223092168 38.8499566724111389
 39.9829123665968993 42.5232601227195914 15.7699913344822278
 39.9829123665968993 42.5232601227195914 18.6549870017233417
 39.9829123665968993 42.5232601227195914 21.5399826689644556
 39.9829123665968993 42.5232601227195914 24.4249783362055695
 39.9829123665968993 42.5232601227195914 27.3099740034466834
 39.9829123665968993 42.5232601227195914 30.1949696706877972
 39.9829123665968993 42.5232601227195914 33.0799653379289111
 39.9829123665968993 42.5232601227195914 35.9649610051700250
 39.9829123665968993 42.5232601227195914 38.8499566724111389
 37.6067171214953788 44.2496670231299731 15.7699913344822278
 37.6067171214953788 44.2496670231299731 18.6549870017233417
 37.6067171214953788 44.2496670231299731 21.5399826689644556
 37.6067171214953788 44.2496670231299731 24.4249783362055695
 37.6067171214953788 44.2496670231299731 27.3099740034466834
 37.6067171214953788 44.2496670231299731 30.1949696706877972
 37.6067171214953788 44.2496670231299731 33.0799653379289111
 37.6067171214953788 44.2496670231299731 35.9649610051700250
 37.6067171214953788 44.2496670231299731 38.8499566724111389
 35.2305218763938583 42.5232601227195914 15.7699913344822278
 35.2305218763938583 42.5232601227195914 18.6549870017233417
 35.2305218763938583 42.5232601227195914 21.5399826689644556
 35.2305218763938583 42.5232601227195914 24.4249783362055695
 35.2305218763938583 42.5232601227195914 27.3099740034466834
 35.2305218763938583 42.5232601227195914 30.1949696706877972
 35.2305218763938583 42.5232601227195914 33.0799653379289111
 35.2305218763938583 42.5232601227195914 35.9649610051700250
 35.2305218763938583 42.5232601227195914 38.8499566724111389
 32.8543266312923308 40.7968532223092168 15.7699913344822278
 32.8543266312923308 40.7968532223092168 18.6549870017233417
 32.8543266312923308 40.7968532223092168 21.5399826689644556
 32.8543266312923308 40.7968532223092168 24.4249783362055695
 32.8543266312923308 40.7968532223092168 27.3099740034466834
 32.8543266312923308 40.7968532223092168 30.1949696706877972
 32.8543266312923308 40.7968532223092168 33.0799653379289111
 32.8543266312923308 40.7968532223092168 35.9649610051700250
 32.8543266312923308 40.7968532223092168 38.8499566724111389
 30.4781313861908103 39.0704463218988423 15.7699913344822278
 30.4781313861908103 39.0704463218988423 18.6549870017233417
 30.4781313861908103 39.0704463218988423 21.5399826689644556
 30.4781313861908103 39.0704463218988423 24.4249783362055695
 30.4781313861908103 39.0704463218988423 27.3099740034466834
 30.4781313861908103 39.0704463218988423 30.1949696706877972
 30.4781313861908103 39.0704463218988423 33.0799653379289111
 30.4781313861908103 39.0704463218988423 35.9649610051700250
 30.4781313861908103 39.0704463218988423 38.8499566724111389
 28.1019361410892898 37.3440394214884606 15.7699913344822278
 28.1019361410892898 37.3440394214884606 18.6549870017233417
 28.1019361410892898 37.3440394214884606 21.5399826689644556
 28.1019361410892898 37.3440394214884606 24.4249783362055695
 28.1019361410892898 37.3440394214884606 27.3099740034466834
 28.1019361410892898 37.3440394214884606 30.1949696706877972
 28.1019361410892898 37.3440394214884606 33.0799653379289111
 28.1019361410892898 37.3440394214884606 35.9649610051700250
 28.1019361410892898 37.3440394214884606 38.8499566724111389
 29.0095619608121815 34.5506543782121156 15.7699913344822278
 29.0095619608121815 34.5506543782121156 18.6549870017233417
 29.0095619608121815 34.5506543782121156 21.5399826689644556
 29.0095619608121815 34.5506543782121156 24.4249783362055695
 29.0095619608121815 34.5506543782121156 27.3099740034466834
 29.0095619608121815 34.5506543782121156 30.1949696706877972
 29.0095619608121815 34.5506543782121156 33.0799653379289111
 29.0095619608121815 34.5506543782121156 35.9649610051700250
 29.0095619608121815 34.5506543782121156 38.8499566724111389
 29.9171877805350768 31.7572693349357671 15.7699913344822278
 29.9171877805350768 31.7572693349357671 18.6549870017233417
 29.9171877805350768 31.7572693349357671 21.5399826689644556
 29.9171877805350768 31.7572693349357671 24.4249783362055695
 29.9171877805350768 31.7572693349357671 27.3099740034466834
 29.9171877805350768 31.7572693349357671 30.1949696706877972
 29.9171877805350768 31.7572693349357671 33.0799653379289111
 29.9171877805350768 31.7572693349357671 35.9649610051700250
 29.9171877805350768 31.7572693349357671 38.8499566724111389
 30.8248136002579720 28.9638842916594186 15.7699913344822278
 30.8248136002579720 28.9638842916594186 18.6549870017233417
 30.8248136002579720 28.9638842916594186 21.5399826689644556
 30.8248136002579720 28.9638842916594186 24.4249783362055695
 30.8248136002579720 28.9638842916594186 27.3099740034466834
 30.8248136002579720 28.9638842916594186 30.1949696706877972
 30.8248136002579720 28.9638842916594186 33.0799653379289111
 30.8248136002579720 28.9638842916594186 35.9649610051700250
 30.8248136002579720 28.9638842916594186 38.8499566724111389
 31.7324394199808637 26.1704992483830736 15.7699913344822278
 31.7324394199808637 26.1704992483830736 18.6549870017233417
 31.7324394199808637 26.1704992483830736 21.5399826689644556
 31.7324394199808637 26.1704992483830736 24.4249783362055695
 31.7324394199808637 26.1704992483830736 27.3099740034466834
 31.7324394199808637 26.1704992483830736 30.1949696706877972
 31.7324394199808637 26.1704992483830736 33.0799653379289111
 31.7324394199808637 26.1704992483830736 35.9649610051700250
 31.7324394199808637 26.1704992483830736 38.8499566724111389
 34.6695782707381213 26.1704992483830701 15.7699913344822278
 34.6695782707381213 26.1704992483830701 18.6549870017233417
 34.6695782707381213 26.1704992483830701 21.5399826689644556
 34.6695782707381213 26.1704992483830701 24.4249783362055695
 34.6695782707381213 26.1704992483830701 27.3099740034466834
 34.6695782707381213 26.1704992483830701 30.1949696706877972
 34.6695782707381213 26.1704992483830701 33.0799653379289111
 34.6695782707381213 26.1704992483830701 35.9649610051700250
 34.6695782707381213 26.1704992483830701 38.8499566724111389
 37.6067171214953788 26.1704992483830701 15.7699913344822278
 37.6067171214953788 26.1704992483830701 18.6549870017233417
 37.6067171214953788 26.1704992483830701 21.5399826689644556
 37.6067171214953788 26.1704992483830701 24.4249783362055695
 37.6067171214953788 26.1704992483830701 27.3099740034466834
 37.6067171214953788 26.1704992483830701 30.1949696706877972
 37.6067171214953788 26.1704992483830701 33.0799653379289111
 37.6067171214953788 26.1704992483830701 35.9649610051700250
 37.6067171214953788 26.1704992483830701 38.8499566724111389
 40.5438559722526364 26.1704992483830701 15.7699913344822278
 40.5438559722526364 26.1704992483830701 18.6549870017233417
 40.5438559722526364 26.1704992483830701 21.5399826689644556
 40.5438559722526364 26.1704992483830701 24.4249783362055695
 40.5438559722526364 26.1704992483830701 27.3099740034466834
 40.5438559722526364 26.1704992483830701 30.1949696706877972
 40.5438559722526364 26.1704992483830701 33.0799653379289111
 40.5438559722526364 26.1704992483830701 35.9649610051700250
 40.5438559722526364 26.1704992483830701 38.8499566724111389
 43.4809948230098868 26.1704992483830701 15.7699913344822278
 43.4809948230098868 26.1704992483830701 18.6549870017233417
 43.4809948230098868 26.1704992483830701 21.5399826689644556
 43.4809948230098868 26.1704992483830701 24.4249783362055695
 43.4809948230098868 26.1704992483830701 27.3099740034466834
 43.4809948230098868 26.1704992483830701 30.1949696706877972
 43.4809948230098868 26.1704992483830701 33.0799653379289111
 43.4809948230098868 26.1704992483830701 35.9649610051700250
 43.4809948230098868 26.1704992483830701 38.8499566724111389
 44.3886206427327821 28.9638842916594186 15.7699913344822278