Pt 
 1.0000000000000000
    51.2959819835502486    0.0000000000000000    0.0000000000000000
     0.0000000000000000   49.7642475993111901    0.0000000000000000
     0.0000000000000000    0.0000000000000000   50.4904444047639274
 Pt 
 947
Cartesian
 25.6479909917751243 25.5363620229562827 10.0000000000000036
 25.6479909917751243 25.5363620229562827 12.7718585822512694
 25.6479909917751243 25.5363620229562827 15.5437171645025352
 25.6479909917751243 25.5363620229562827 18.3155757467538010
 25.6479909917751243 25.5363620229562827 21.0874343290050703
 25.6479909917751243 25.5363620229562827 23.8592929112563326
 25.6479909917751243 25.5363620229562827 26.6311514935076019
 25.6479909917751243 25.5363620229562827 29.4030100757588677
 25.6479909917751243 25.5363620229562827 32.1748686580101335
 25.6479909917751243 25.5363620229562827 34.9467272402613958
 25.6479909917751243 25.5363620229562827 37.7185858225126651
 25.6479909917751243 25.5363620229562827 40.4904444047639345
 27.9310021096177650 26.2781573018620591 11.3859292911256365
 27.9310021096177650 26.2781573018620591 14.1577878733769023
 27.9310021096177650 26.2781573018620591 16.9296464556281698
 27.9310021096177650 26.2781573018620591 19.7015050378794356
 27.9310021096177650 26.2781573018620591 22.4733636201307014
 27.9310021096177650 26.2781573018620591 25.2452222023819672
 27.9310021096177650 26.2781573018620591 28.0170807846332366
 27.9310021096177650 26.2781573018620591 30.7889393668844988
 27.9310021096177650 26.2781573018620591 33.5607979491357682
 27.9310021096177650 26.2781573018620591 36.3326565313870304
 27.9310021096177650 26.2781573018620591 39.1045151136382998
 25.6479909917751243 27.9368619708837969 11.3859292911256365
 25.6479909917751243 27.9368619708837969 14.1577878733769023
 25.6479909917751243 27.9368619708837969 16.9296464556281698
 25.6479909917751243 27.9368619708837969 19.7015050378794356
 25.6479909917751243 27.9368619708837969 22.4733636201307014
 25.6479909917751243 27.9368619708837969 25.2452222023819672
 25.6479909917751243 27.9368619708837969 28.0170807846332366
 25.6479909917751243 27.9368619708837969 30.7889393668844988
 25.6479909917751243 27.9368619708837969 33.5607979491357682
 25.6479909917751243 27.9368619708837969 36.3326565313870304
 25.6479909917751243 27.9368619708837969 39.1045151136382998
 23.3649798739324837 26.2781573018620627 11.3859292911256365
 23.3649798739324837 26.2781573018620627 14.1577878733769023
 23.3649798739324837 26.2781573018620627 16.9296464556281698
 23.3649798739324837 26.2781573018620627 19.7015050378794356
 23.3649798739324837 26.2781573018620627 22.4733636201307014
 23.3649798739324837 26.2781573018620627 25.2452222023819672
 23.3649798739324837 26.2781573018620627 28.0170807846332366
 23.3649798739324837 26.2781573018620627 30.7889393668844988
 23.3649798739324837 26.2781573018620627 33.5607979491357682
 23.3649798739324837 26.2781573018620627 36.3326565313870304
 23.3649798739324837 26.2781573018620627 39.1045151136382998
 24.2370125242544816 23.5943167700867491 11.3859292911256365
 24.2370125242544816 23.5943167700867491 14.1577878733769023
 24.2370125242544816 23.5943167700867491 16.9296464556281698
 24.2370125242544816 23.5943167700867491 19.7015050378794356
 24.2370125242544816 23.5943167700867491 22.4733636201307014
 24.2370125242544816 23.5943167700867491 25.2452222023819672
 24.2370125242544816 23.5943167700867491 28.0170807846332366
 24.2370125242544816 23.5943167700867491 30.7889393668844988
 24.2370125242544816 23.5943167700867491 33.5607979491357682
 24.2370125242544816 23.5943167700867491 36.3326565313870304
 24.2370125242544816 23.5943167700867491 39.1045151136382998
 27.0589694592957670 23.5943167700867455 11.3859292911256365
 27.0589694592957670 23.5943167700867455 14.1577878733769023
 27.0589694592957670 23.5943167700867455 16.9296464556281698
 27.0589694592957670 23.5943167700867455 19.7015050378794356
 27.0589694592957670 23.5943167700867455 22.4733636201307014
 27.0589694592957670 23.5943167700867455 25.2452222023819672
 27.0589694592957670 23.5943167700867455 28.0170807846332366
 27.0589694592957670 23.5943167700867455 30.7889393668844988
 27.0589694592957670 23.5943167700867455 33.5607979491357682
 27.0589694592957670 23.5943167700867455 36.3326565313870304
 27.0589694592957670 23.5943167700867455 39.1045151136382998
 30.2140132274604021 27.0199525807678391 12.7718585822512694
 30.2140132274604021 27.0199525807678391 15.5437171645025352
 30.2140132274604021 27.0199525807678391 18.3155757467538010
 30.2140132274604021 27.0199525807678391 21.0874343290050703
 30.2140132274604021 27.0199525807678391 23.8592929112563326
 30.2140132274604021 27.0199525807678391 26.6311514935076019
 30.2140132274604021 27.0199525807678391 29.4030100757588677
 30.2140132274604021 27.0199525807678391 32.1748686580101335
 30.2140132274604021 27.0199525807678391 34.9467272402613958
 30.2140132274604021 27.0199525807678391 37.7185858225126651
 27.9310021096177650 28.6786572497895733 12.7718585822512694
 27.9310021096177650 28.6786572497895733 15.5437171645025352
 27.9310021096177650 28.6786572497895733 18.3155757467538010
 27.9310021096177650 28.6786572497895733 21.0874343290050703
 27.9310021096177650 28.6786572497895733 23.8592929112563326
 27.9310021096177650 28.6786572497895733 26.6311514935076019
 27.9310021096177650 28.6786572497895733 29.4030100757588677
 27.9310021096177650 28.6786572497895733 32.1748686580101335
 27.9310021096177650 28.6786572497895733 34.9467272402613958
 27.9310021096177650 28.6786572497895733 37.7185858225126651
 25.6479909917751243 30.3373619188113111 12.7718585822512694
 25.6479909917751243 30.3373619188113111 15.5437171645025352
 25.6479909917751243 30.3373619188113111 18.3155757467538010
 25.6479909917751243 30.3373619188113111 21.0874343290050703
 25.6479909917751243 30.3373619188113111 23.8592929112563326
 25.6479909917751243 30.3373619188113111 26.6311514935076019
 25.6479909917751243 30.3373619188113111 29.4030100757588677
 25.6479909917751243 30.3373619188113111 32.1748686580101335
 25.6479909917751243 30.3373619188113111 34.9467272402613958
 25.6479909917751243 30.3373619188113111 37.7185858225126651
 23.3649798739324837 28.6786572497895733 12.7718585822512694
 23.3649798739324837 28.6786572497895733 15.5437171645025352
 23.3649798739324837 28.6786572497895733 18.3155757467538010
 23.3649798739324837 28.6786572497895733 21.0874343290050703
 23.3649798739324837 28.6786572497895733 23.8592929112563326
 23.3649798739324837 28.6786572497895733 26.6311514935076019
 23.3649798739324837 28.6786572497895733 29.4030100757588677
 23.3649798739324837 28.6786572497895733 32.1748686580101335
 23.3649798739324837 28.6786572497895733 34.9467272402613958
 23.3649798739324837 28.6786572497895733 37.7185858225126651
 21.0819687560898466 27.0199525807678391 12.7718585822512694
 21.0819687560898466 27.0199525807678391 15.5437171645025352
 21.0819687560898466 27.0199525807678391 18.3155757467538010
 21.0819687560898466 27.0199525807678391 21.0874343290050703
 21.0819687560898466 27.0199525807678391 23.8592929112563326
 21.0819687560898466 27.0199525807678391 26.6311514935076019
 21.0819687560898466 27.0199525807678391 29.4030100757588677
 21.0819687560898466 27.0199525807678391 32.1748686580101335
 21.0819687560898466 27.0199525807678391 34.9467272402613958
 21.0819687560898466 27.0199525807678391 37.7185858225126651
 21.9540014064118409 24.3361120489925256 12.7718585822512694
 21.9540014064118409 24.3361120489925256 15.5437171645025352
 21.9540014064118409 24.3361120489925256 18.3155757467538010
 21.9540014064118409 24.3361120489925256 21.0874343290050703
 21.9540014064118409 24.3361120489925256 23.8592929112563326
 21.9540014064118409 24.3361120489925256 26.6311514935076019
 21.9540014064118409 24.3361120489925256 29.4030100757588677
 21.9540014064118409 24.3361120489925256 32.1748686580101335
 21.9540014064118409 24.3361120489925256 34.9467272402613958
 21.9540014064118409 24.3361120489925256 37.7185858225126651
 22.8260340567338389 21.6522715172172120 12.7718585822512694
 22.8260340567338389 21.6522715172172120 15.5437171645025352
 22.8260340567338389 21.6522715172172120 18.3155757467538010
 22.8260340567338389 21.6522715172172120 21.0874343290050703
 22.8260340567338389 21.6522715172172120 23.8592929112563326
 22.8260340567338389 21.6522715172172120 26.6311514935076019
 22.8260340567338389 21.6522715172172120 29.4030100757588677
 22.8260340567338389 21.6522715172172120 32.1748686580101335
 22.8260340567338389 21.6522715172172120 34.9467272402613958
 22.8260340567338389 21.6522715172172120 37.7185858225126651
 25.6479909917751243 21.6522715172172120 12.7718585822512694
 25.6479909917751243 21.6522715172172120 15.5437171645025352
 25.6479909917751243 21.6522715172172120 18.3155757467538010
 25.6479909917751243 21.6522715172172120 21.0874343290050703
 25.6479909917751243 21.6522715172172120 23.8592929112563326
 25.6479909917751243 21.6522715172172120 26.6311514935076019
 25.6479909917751243 21.6522715172172120 29.4030100757588677
 25.6479909917751243 21.6522715172172120 32.1748686580101335
 25.6479909917751243 21.6522715172172120 34.9467272402613958
 25.6479909917751243 21.6522715172172120 37.7185858225126651
 28.4699479268164097 21.6522715172172120 12.7718585822512694
 28.4699479268164097 21.6522715172172120 15.5437171645025352
 28.4699479268164097 21.6522715172172120 18.3155757467538010
 28.4699479268164097 21.6522715172172120 21.0874343290050703
 28.4699479268164097 21.6522715172172120 23.8592929112563326
 28.4699479268164097 21.6522715172172120 26.6311514935076019
 28.4699479268164097 21.6522715172172120 29.4030100757588677
 28.4699479268164097 21.6522715172172120 32.1748686580101335
 28.4699479268164097 21.6522715172172120 34.9467272402613958
 28.4699479268164097 21.6522715172172120 37.7185858225126651
 29.3419805771384077 24.3361120489925256 12.7718585822512694
 29.3419805771384077 24.3361120489925256 15.5437171645025352
 29.3419805771384077 24.3361120489925256 18.3155757467538010
 29.3419805771384077 24.3361120489925256 21.0874343290050703
 29.3419805771384077 24.3361120489925256 23.8592929112563326
 29.3419805771384077 24.3361120489925256 26.6311514935076019
 29.3419805771384077 24.3361120489925256 29.4030100757588677
 29.3419805771384077 24.3361120489925256 32.1748686580101335
 29.3419805771384077 24.3361120489925256 34.9467272402613958
 29.3419805771384077 24.3361120489925256 37.7185858225126651
 32.4970243453030463 27.7617478596736156 14.1577878733769023
 32.4970243453030463 27.7617478596736156 16.9296464556281663
 32.4970243453030463 27.7617478596736156 19.7015050378794356
 32.4970243453030463 27.7617478596736156 22.4733636201307014
 32.4970243453030463 27.7617478596736156 25.2452222023819672
 32.4970243453030463 27.7617478596736156 28.0170807846332330
 32.4970243453030463 27.7617478596736156 30.7889393668844988
 32.4970243453030463 27.7617478596736156 33.5607979491357682
 32.4970243453030463 27.7617478596736156 36.3326565313870304
 30.2140132274604021 29.4204525286953533 14.1577878733769023
 30.2140132274604021 29.4204525286953533 16.9296464556281663
 30.2140132274604021 29.4204525286953533 19.7015050378794356
 30.2140132274604021 29.4204525286953533 22.4733636201307014
 30.2140132274604021 29.4204525286953533 25.2452222023819672
 30.2140132274604021 29.4204525286953533 28.0170807846332330
 30.2140132274604021 29.4204525286953533 30.7889393668844988
 30.2140132274604021 29.4204525286953533 33.5607979491357682
 30.2140132274604021 29.4204525286953533 36.3326565313870304
 27.9310021096177650 31.0791571977170875 14.1577878733769023
 27.9310021096177650 31.0791571977170875 16.9296464556281663
 27.9310021096177650 31.0791571977170875 19.7015050378794356
 27.9310021096177650 31.0791571977170875 22.4733636201307014
 27.9310021096177650 31.0791571977170875 25.2452222023819672
 27.9310021096177650 31.0791571977170875 28.0170807846332330
 27.9310021096177650 31.0791571977170875 30.7889393668844988
 27.9310021096177650 31.0791571977170875 33.5607979491357682
 27.9310021096177650 31.0791571977170875 36.3326565313870304
 25.6479909917751243 32.7378618667388253 14.1577878733769023
 25.6479909917751243 32.7378618667388253 16.9296464556281663
 25.6479909917751243 32.7378618667388253 19.7015050378794356
 25.6479909917751243 32.7378618667388253 22.4733636201307014
 25.6479909917751243 32.7378618667388253 25.2452222023819672
 25.6479909917751243 32.7378618667388253 28.0170807846332330
 25.6479909917751243 32.7378618667388253 30.7889393668844988
 25.6479909917751243 32.7378618667388253 33.5607979491357682
 25.6479909917751243 32.7378618667388253 36.3326565313870304
 23.3649798739324837 31.0791571977170875 14.1577878733769023
 23.3649798739324837 31.0791571977170875 16.9296464556281663
 23.3649798739324837 31.0791571977170875 19.7015050378794356
 23.3649798739324837 31.0791571977170875 22.4733636201307014
 23.3649798739324837 31.0791571977170875 25.2452222023819672
 23.3649798739324837 31.0791571977170875 28.0170807846332330
 23.3649798739324837 31.0791571977170875 30.7889393668844988
 23.3649798739324837 31.0791571977170875 33.5607979491357682
 23.3649798739324837 31.0791571977170875 36.3326565313870304
 21.0819687560898466 29.4204525286953533 14.1577878733769023
 21.0819687560898466 29.4204525286953533 16.9296464556281663
 21.0819687560898466 29.4204525286953533 19.7015050378794356
 21.0819687560898466 29.4204525286953533 22.4733636201307014
 21.0819687560898466 29.4204525286953533 25.2452222023819672
 21.0819687560898466 29.4204525286953533 28.0170807846332330
 21.0819687560898466 29.4204525286953533 30.7889393668844988
 21.0819687560898466 29.4204525286953533 33.5607979491357682
 21.0819687560898466 29.4204525286953533 36.3326565313870304
 18.7989576382472059 27.7617478596736191 14.1577878733769023
 18.7989576382472059 27.7617478596736191 16.9296464556281663
 18.7989576382472059 27.7617478596736191 19.7015050378794356
 18.7989576382472059 27.7617478596736191 22.4733636201307014
 18.7989576382472059 27.7617478596736191 25.2452222023819672
 18.7989576382472059 27.7617478596736191 28.0170807846332330
 18.7989576382472059 27.7617478596736191 30.7889393668844988
 18.7989576382472059 27.7617478596736191 33.5607979491357682
 18.7989576382472059 27.7617478596736191 36.3326565313870304
 19.6709902885692038 25.0779073278983056 14.1577878733769023
 19.6709902885692038 25.0779073278983056 16.9296464556281663
 19.6709902885692038 25.0779073278983056 19.7015050378794356
 19.6709902885692038 25.0779073278983056 22.4733636201307014
 19.6709902885692038 25.0779073278983056 25.2452222023819672
 19.6709902885692038 25.0779073278983056 28.0170807846332330
 19.6709902885692038 25.0779073278983056 30.7889393668844988
 19.6709902885692038 25.0779073278983056 33.5607979491357682
 19.6709902885692038 25.0779073278983056 36.3326565313870304
 20.5430229388911982 22.3940667961229920 14.1577878733769023
 20.5430229388911982 22.3940667961229920 16.9296464556281663
 20.5430229388911982 22.3940667961229920 19.7015050378794356
 20.5430229388911982 22.3940667961229920 22.4733636201307014
 20.5430229388911982 22.3940667961229920 25.2452222023819672
 20.5430229388911982 22.3940667961229920 28.0170807846332330
 20.5430229388911982 22.3940667961229920 30.7889393668844988
 20.5430229388911982 22.3940667961229920 33.5607979491357682
 20.5430229388911982 22.3940667961229920 36.3326565313870304
 21.4150555892131962 19.7102262643476784 14.1577878733769023
 21.4150555892131962 19.7102262643476784 16.9296464556281663
 21.4150555892131962 19.7102262643476784 19.7015050378794356
 21.4150555892131962 19.7102262643476784 22.4733636201307014
 21.4150555892131962 19.7102262643476784 25.2452222023819672
 21.4150555892131962 19.7102262643476784 28.0170807846332330
 21.4150555892131962 19.7102262643476784 30.7889393668844988
 21.4150555892131962 19.7102262643476784 33.5607979491357682
 21.4150555892131962 19.7102262643476784 36.3326565313870304
 24.2370125242544816 19.7102262643476749 14.1577878733769023
 24.2370125242544816 19.7102262643476749 16.9296464556281663
 24.2370125242544816 19.7102262643476749 19.7015050378794356
 24.2370125242544816 19.7102262643476749 22.4733636201307014
 24.2370125242544816 19.7102262643476749 25.2452222023819672
 24.2370125242544816 19.7102262643476749 28.0170807846332330
 24.2370125242544816 19.7102262643476749 30.7889393668844988
 24.2370125242544816 19.7102262643476749 33.5607979491357682
 24.2370125242544816 19.7102262643476749 36.3326565313870304
 27.0589694592957670 19.7102262643476749 14.1577878733769023
 27.0589694592957670 19.7102262643476749 16.9296464556281663
 27.0589694592957670 19.7102262643476749 19.7015050378794356
 27.0589694592957670 19.7102262643476749 22.4733636201307014
 27.0589694592957670 19.7102262643476749 25.2452222023819672
 27.0589694592957670 19.7102262643476749 28.0170807846332330
 27.0589694592957670 19.7102262643476749 30.7889393668844988
 27.0589694592957670 19.7102262643476749 33.5607979491357682
 27.0589694592957670 19.7102262643476749 36.3326565313870304
 29.8809263943370524 19.7102262643476749 14.1577878733769023
 29.8809263943370524 19.7102262643476749 16.9296464556281663
 29.8809263943370524 19.7102262643476749 19.7015050378794356
 29.8809263943370524 19.7102262643476749 22.4733636201307014
 29.8809263943370524 19.7102262643476749 25.2452222023819672
 29.8809263943370524 19.7102262643476749 28.0170807846332330
 29.8809263943370524 19.7102262643476749 30.7889393668844988
 29.8809263943370524 19.7102262643476749 33.5607979491357682
 29.8809263943370524 19.7102262643476749 36.3326565313870304
 30.7529590446590468 22.3940667961229884 14.1577878733769023
 30.7529590446590468 22.3940667961229884 16.9296464556281663
 30.7529590446590468 22.3940667961229884 19.7015050378794356
 30.7529590446590468 22.3940667961229884 22.4733636201307014
 30.7529590446590468 22.3940667961229884 25.2452222023819672
 30.7529590446590468 22.3940667961229884 28.0170807846332330
 30.7529590446590468 22.3940667961229884 30.7889393668844988
 30.7529590446590468 22.3940667961229884 33.5607979491357682
 30.7529590446590468 22.3940667961229884 36.3326565313870304
 31.6249916949810448 25.0779073278983020 14.1577878733769023
 31.6249916949810448 25.0779073278983020 16.9296464556281663
 31.6249916949810448 25.0779073278983020 19.7015050378794356
 31.6249916949810448 25.0779073278983020 22.4733636201307014
 31.6249916949810448 25.0779073278983020 25.2452222023819672
 31.6249916949810448 25.0779073278983020 28.0170807846332330
 31.6249916949810448 25.0779073278983020 30.7889393668844988
 31.6249916949810448 25.0779073278983020 33.5607979491357682
 31.6249916949810448 25.0779073278983020 36.3326565313870304
 34.7800354631456798 28.5035431385793920 15.5437171645025352
 34.7800354631456798 28.5035431385793920 18.3155757467538010
 34.7800354631456798 28.5035431385793920 21.0874343290050668
 34.7800354631456798 28.5035431385793920 23.8592929112563326
 34.7800354631456798 28.5035431385793920 26.6311514935076019
 34.7800354631456798 28.5035431385793920 29.4030100757588642
 34.7800354631456798 28.5035431385793920 32.1748686580101335
 34.7800354631456798 28.5035431385793920 34.9467272402613958
 32.4970243453030463 30.1622478076011298 15.5437171645025352
 32.4970243453030463 30.1622478076011298 18.3155757467538010
 32.4970243453030463 30.1622478076011298 21.0874343290050668
 32.4970243453030463 30.1622478076011298 23.8592929112563326
 32.4970243453030463 30.1622478076011298 26.6311514935076019
 32.4970243453030463 30.1622478076011298 29.4030100757588642
 32.4970243453030463 30.1622478076011298 32.1748686580101335
 32.4970243453030463 30.1622478076011298 34.9467272402613958
 30.2140132274604021 31.8209524766228675 15.5437171645025352
 30.2140132274604021 31.8209524766228675 18.3155757467538010
 30.2140132274604021 31.8209524766228675 21.0874343290050668
 30.2140132274604021 31.8209524766228675 23.8592929112563326
 30.2140132274604021 31.8209524766228675 26.6311514935076019
 30.2140132274604021 31.8209524766228675 29.4030100757588642
 30.2140132274604021 31.8209524766228675 32.1748686580101335
 30.2140132274604021 31.8209524766228675 34.9467272402613958
 27.9310021096177650 33.4796571456446017 15.5437171645025352
 27.9310021096177650 33.4796571456446017 18.3155757467538010
 27.9310021096177650 33.4796571456446017 21.0874343290050668
 27.9310021096177650 33.4796571456446017 23.8592929112563326
 27.9310021096177650 33.4796571456446017 26.6311514935076019
 27.9310021096177650 33.4796571456446017 29.4030100757588642
 27.9310021096177650 33.4796571456446017 32.1748686580101335
 27.9310021096177650 33.4796571456446017 34.9467272402613958
 25.6479909917751243 35.1383618146663395 15.5437171645025352
 25.6479909917751243 35.1383618146663395 18.3155757467538010
 25.6479909917751243 35.1383618146663395 21.0874343290050668
 25.6479909917751243 35.1383618146663395 23.8592929112563326
 25.6479909917751243 35.1383618146663395 26.6311514935076019
 25.6479909917751243 35.1383618146663395 29.4030100757588642
 25.6479909917751243 35.1383618146663395 32.1748686580101335
 25.6479909917751243 35.1383618146663395 34.9467272402613958
 23.3649798739324837 33.4796571456446017 15.5437171645025352
 23.3649798739324837 33.4796571456446017 18.3155757467538010
 23.3649798739324837 33.4796571456446017 21.0874343290050668
 23.3649798739324837 33.4796571456446017 23.8592929112563326
 23.3649798739324837 33.4796571456446017 26.6311514935076019
 23.3649798739324837 33.4796571456446017 29.4030100757588642
 23.3649798739324837 33.4796571456446017 32.1748686580101335
 23.3649798739324837 33.4796571456446017 34.9467272402613958
 21.0819687560898466 31.8209524766228675 15.5437171645025352
 21.0819687560898466 31.8209524766228675 18.3155757467538010
 21.0819687560898466 31.8209524766228675 21.0874343290050668
 21.0819687560898466 31.8209524766228675 23.8592929112563326
 21.0819687560898466 31.8209524766228675 26.6311514935076019
 21.0819687560898466 31.8209524766228675 29.4030100757588642
 21.0819687560898466 31.8209524766228675 32.1748686580101335
 21.0819687560898466 31.8209524766228675 34.9467272402613958
 18.7989576382472059 30.1622478076011333 15.5437171645025352
 18.7989576382472059 30.1622478076011333 18.3155757467538010
 18.7989576382472059 30.1622478076011333 21.0874343290050668
 18.7989576382472059 30.1622478076011333 23.8592929112563326
 18.7989576382472059 30.1622478076011333 26.6311514935076019
 18.7989576382472059 30.1622478076011333 29.4030100757588642
 18.7989576382472059 30.1622478076011333 32.1748686580101335
 18.7989576382472059 30.1622478076011333 34.9467272402613958
 16.5159465204045688 28.5035431385793956 15.5437171645025352
 16.5159465204045688 28.5035431385793956 18.3155757467538010
 16.5159465204045688 28.5035431385793956 21.0874343290050668
 16.5159465204045688 28.5035431385793956 23.8592929112563326
 16.5159465204045688 28.5035431385793956 26.6311514935076019
 16.5159465204045688 28.5035431385793956 29.4030100757588642
 16.5159465204045688 28.5035431385793956 32.1748686580101335
 16.5159465204045688 28.5035431385793956 34.9467272402613958
 17.3879791707265632 25.8197026068040820 15.5437171645025352
 17.3879791707265632 25.8197026068040820 18.3155757467538010
 17.3879791707265632 25.8197026068040820 21.0874343290050668
 17.3879791707265632 25.8197026068040820 23.8592929112563326
 17.3879791707265632 25.8197026068040820 26.6311514935076019
 17.3879791707265632 25.8197026068040820 29.4030100757588642
 17.3879791707265632 25.8197026068040820 32.1748686580101335
 17.3879791707265632 25.8197026068040820 34.9467272402613958
 18.2600118210485576 23.1358620750287685 15.5437171645025352
 18.2600118210485576 23.1358620750287685 18.3155757467538010
 18.2600118210485576 23.1358620750287685 21.0874343290050668
 18.2600118210485576 23.1358620750287685 23.8592929112563326
 18.2600118210485576 23.1358620750287685 26.6311514935076019
 18.2600118210485576 23.1358620750287685 29.4030100757588642
 18.2600118210485576 23.1358620750287685 32.1748686580101335
 18.2600118210485576 23.1358620750287685 34.9467272402613958
 19.1320444713705555 20.4520215432534549 15.5437171645025352
 19.1320444713705555 20.4520215432534549 18.3155757467538010
 19.1320444713705555 20.4520215432534549 21.0874343290050668
 19.1320444713705555 20.4520215432534549 23.8592929112563326
 19.1320444713705555 20.4520215432534549 26.6311514935076019
 19.1320444713705555 20.4520215432534549 29.4030100757588642
 19.1320444713705555 20.4520215432534549 32.1748686580101335
 19.1320444713705555 20.4520215432534549 34.9467272402613958
 20.0040771216925535 17.7681810114781413 15.5437171645025352
 20.0040771216925535 17.7681810114781413 18.3155757467538010
 20.0040771216925535 17.7681810114781413 21.0874343290050668
 20.0040771216925535 17.7681810114781413 23.8592929112563326
 20.0040771216925535 17.7681810114781413 26.6311514935076019
 20.0040771216925535 17.7681810114781413 29.4030100757588642
 20.0040771216925535 17.7681810114781413 32.1748686580101335
 20.0040771216925535 17.7681810114781413 34.9467272402613958
 22.8260340567338389 17.7681810114781413 15.5437171645025352
 22.8260340567338389 17.7681810114781413 18.3155757467538010
 22.8260340567338389 17.7681810114781413 21.0874343290050668
 22.8260340567338389 17.7681810114781413 23.8592929112563326
 22.8260340567338389 17.7681810114781413 26.6311514935076019
 22.8260340567338389 17.7681810114781413 29.4030100757588642
 22.8260340567338389 17.7681810114781413 32.1748686580101335
 22.8260340567338389 17.7681810114781413 34.9467272402613958
 25.6479909917751243 17.7681810114781413 15.5437171645025352
 25.6479909917751243 17.7681810114781413 18.3155757467538010
 25.6479909917751243 17.7681810114781413 21.0874343290050668
 25.6479909917751243 17.7681810114781413 23.8592929112563326
 25.6479909917751243 17.7681810114781413 26.6311514935076019
 25.6479909917751243 17.7681810114781413 29.4030100757588642
 25.6479909917751243 17.7681810114781413 32.1748686580101335
 25.6479909917751243 17.7681810114781413 34.9467272402613958
 28.4699479268164097 17.7681810114781413 15.5437171645025352
 28.4699479268164097 17.7681810114781413 18.3155757467538010
 28.4699479268164097 17.7681810114781413 21.0874343290050668
 28.4699479268164097 17.7681810114781413 23.8592929112563326
 28.4699479268164097 17.7681810114781413 26.6311514935076019
 28.4699479268164097 17.7681810114781413 29.4030100757588642
 28.4699479268164097 17.7681810114781413 32.1748686580101335
 28.4699479268164097 17.7681810114781413 34.9467272402613958
 31.2919048618576916 17.7681810114781413 15.5437171645025352
 31.2919048618576916 17.7681810114781413 18.3155757467538010
 31.2919048618576916 17.7681810114781413 21.0874343290050668
 31.2919048618576916 17.7681810114781413 23.8592929112563326
 31.2919048618576916 17.7681810114781413 26.6311514935076019
 31.2919048618576916 17.7681810114781413 29.4030100757588642
 31.2919048618576916 17.7681810114781413 32.1748686580101335
 31.2919048618576916 17.7681810114781413 34.9467272402613958
 32.1639375121796860 20.4520215432534513 15.5437171645025352
 32.1639375121796860 20.4520215432534513 18.3155757467538010
 32.1639375121796860 20.4520215432534513 21.0874343290050668
 32.1639375121796860 20.4520215432534513 23.8592929112563326
 32.1639375121796860 20.4520215432534513 26.6311514935076019
 32.1639375121796860 20.4520215432534513 29.4030100757588642
 32.1639375121796860 20.4520215432534513 32.1748686580101335
 32.1639375121796860 20.4520215432534513 34.9467272402613958
 33.0359701625016839 23.1358620750287685 15.5437171645025352
 33.0359701625016839 23.1358620750287685 18.3155757467538010
 33.0359701625016839 23.1358620750287685 21.0874343290050668
 33.0359701625016839 23.1358620750287685 23.8592929112563326
 33.0359701625016839 23.1358620750287685 26.6311514935076019
 33.0359701625016839 23.1358620750287685 29.4030100757588642
 33.0359701625016839 23.1358620750287685 32.1748686580101335
 33.0359701625016839 23.1358620750287685 34.9467272402613958
 33.9080028128236819 25.8197026068040785 15.5437171645025352
 33.9080028128236819 25.8197026068040785 18.3155757467538010
 33.9080028128236819 25.8197026068040785 21.0874343290050668
 33.9080028128236819 25.8197026068040785 23.8592929112563326
 33.9080028128236819 25.8197026068040785 26.6311514935076019
 33.9080028128236819 25.8197026068040785 29.4030100757588642
 33.9080028128236819 25.8197026068040785 32.1748686580101335
 33.9080028128236819 25.8197026068040785 34.9467272402613958
 37.0630465809883205 29.2453384174851720 16.9296464556281663
 37.0630465809883205 29.2453384174851720 19.7015050378794356
 37.0630465809883205 29.2453384174851720 22.4733636201307014
 37.0630465809883205 29.2453384174851720 25.2452222023819672
 37.0630465809883205 29.2453384174851720 28.0170807846332330
 37.0630465809883205 29.2453384174851720 30.7889393668844988
 37.0630465809883205 29.2453384174851720 33.5607979491357682
 34.7800354631456798 30.9040430865069098 16.9296464556281663
 34.7800354631456798 30.9040430865069098 19.7015050378794356
 34.7800354631456798 30.9040430865069098 22.4733636201307014
 34.7800354631456798 30.9040430865069098 25.2452222023819672
 34.7800354631456798 30.9040430865069098 28.0170807846332330
 34.7800354631456798 30.9040430865069098 30.7889393668844988
 34.7800354631456798 30.9040430865069098 33.5607979491357682
 32.4970243453030463 32.5627477555286475 16.9296464556281663
 32.4970243453030463 32.5627477555286475 19.7015050378794356
 32.4970243453030463 32.5627477555286475 22.4733636201307014
 32.4970243453030463 32.5627477555286475 25.2452222023819672
 32.4970243453030463 32.5627477555286475 28.0170807846332330
 32.4970243453030463 32.5627477555286475 30.7889393668844988
 32.4970243453030463 32.5627477555286475 33.5607979491357682
 30.2140132274604021 34.2214524245503782 16.9296464556281663
 30.2140132274604021 34.2214524245503782 19.7015050378794356
 30.2140132274604021 34.2214524245503782 22.4733636201307014
 30.2140132274604021 34.2214524245503782 25.2452222023819672