Au 
 1.0000000000000000
    70.4610437527877025    0.0000000000000000    0.0000000000000000
     0.0000000000000000   67.9913044801435973    0.0000000000000000
     0.0000000000000000    0.0000000000000000   51.7349523396522528
 Au 
 1437
Cartesian
 35.2305218763938512 32.2344364665267165 10.0000000000000000
 35.2305218763938512 32.2344364665267165 12.8849956672411139
 35.2305218763938512 32.2344364665267165 15.7699913344822278
 35.2305218763938512 32.2344364665267165 18.6549870017233417
 35.2305218763938512 32.2344364665267165 21.5399826689644556
 35.2305218763938512 32.2344364665267165 24.4249783362055695
 35.2305218763938512 32.2344364665267165 27.3099740034466834
 35.2305218763938512 32.2344364665267165 30.1949696706877972
 35.2305218763938512 32.2344364665267165 33.0799653379289111
 35.2305218763938512 32.2344364665267165 35.9649610051700250
 35.2305218763938512 32.2344364665267165 38.8499566724111389
 35.2305218763938512 32.2344364665267165 41.7349523396522528
 37.6067171214953717 33.0065091037551781 11.4424978336205569
 37.6067171214953717 33.0065091037551781 14.3274935008616708
 37.6067171214953717 33.0065091037551781 17.2124891681027847
 37.6067171214953717 33.0065091037551781 20.0974848353438986
 37.6067171214953717 33.0065091037551781 22.9824805025850125
 37.6067171214953717 33.0065091037551781 25.8674761698261264
 37.6067171214953717 33.0065091037551781 28.7524718370672403
 37.6067171214953717 33.0065091037551781 31.6374675043083542
 37.6067171214953717 33.0065091037551781 34.5224631715494681
 37.6067171214953717 33.0065091037551781 37.4074588387905820
 37.6067171214953717 33.0065091037551781 40.2924545060316959
 35.2305218763938512 34.7329160041655598 11.4424978336205569
 35.2305218763938512 34.7329160041655598 14.3274935008616708
 35.2305218763938512 34.7329160041655598 17.2124891681027847
 35.2305218763938512 34.7329160041655598 20.0974848353438986
 35.2305218763938512 34.7329160041655598 22.9824805025850125
 35.2305218763938512 34.7329160041655598 25.8674761698261264
 35.2305218763938512 34.7329160041655598 28.7524718370672403
 35.2305218763938512 34.7329160041655598 31.6374675043083542
 35.2305218763938512 34.7329160041655598 34.5224631715494681
 35.2305218763938512 34.7329160041655598 37.4074588387905820
 35.2305218763938512 34.7329160041655598 40.2924545060316959
 32.8543266312923308 33.0065091037551781 11.4424978336205569
 32.8543266312923308 33.0065091037551781 14.3274935008616708
 32.8543266312923308 33.0065091037551781 17.2124891681027847
 32.8543266312923308 33.0065091037551781 20.0974848353438986
 32.8543266312923308 33.0065091037551781 22.9824805025850125
 32.8543266312923308 33.0065091037551781 25.8674761698261264
 32.8543266312923308 33.0065091037551781 28.7524718370672403
 32.8543266312923308 33.0065091037551781 31.6374675043083542
 32.8543266312923308 33.0065091037551781 34.5224631715494681
 32.8543266312923308 33.0065091037551781 37.4074588387905820
 32.8543266312923308 33.0065091037551781 40.2924545060316959
 33.7619524510152260 30.2131240604788331 11.4424978336205569
 33.7619524510152260 30.2131240604788331 14.3274935008616708
 33.7619524510152260 30.2131240604788331 17.2124891681027847
 33.7619524510152260 30.2131240604788331 20.0974848353438986
 33.7619524510152260 30.2131240604788331 22.9824805025850125
 33.7619524510152260 30.2131240604788331 25.8674761698261264
 33.7619524510152260 30.2131240604788331 28.7524718370672403
 33.7619524510152260 30.2131240604788331 31.6374675043083542
 33.7619524510152260 30.2131240604788331 34.5224631715494681
 33.7619524510152260 30.2131240604788331 37.4074588387905820
 33.7619524510152260 30.2131240604788331 40.2924545060316959
 36.6990913017724765 30.2131240604788331 11.4424978336205569
 36.6990913017724765 30.2131240604788331 14.3274935008616708
 36.6990913017724765 30.2131240604788331 17.2124891681027847
 36.6990913017724765 30.2131240604788331 20.0974848353438986
 36.6990913017724765 30.2131240604788331 22.9824805025850125
 36.6990913017724765 30.2131240604788331 25.8674761698261264
 36.6990913017724765 30.2131240604788331 28.7524718370672403
 36.6990913017724765 30.2131240604788331 31.6374675043083542
 36.6990913017724765 30.2131240604788331 34.5224631715494681
 36.6990913017724765 30.2131240604788331 37.4074588387905820
 36.6990913017724765 30.2131240604788331 40.2924545060316959
 39.9829123665968993 33.7785817409836397 12.8849956672411139
 39.9829123665968993 33.7785817409836397 15.7699913344822278
 39.9829123665968993 33.7785817409836397 18.6549870017233417
 39.9829123665968993 33.7785817409836397 21.5399826689644556
 39.9829123665968993 33.7785817409836397 24.4249783362055695
 39.9829123665968993 33.7785817409836397 27.3099740034466834
 39.9829123665968993 33.7785817409836397 30.1949696706877972
 39.9829123665968993 33.7785817409836397 33.0799653379289111
 39.9829123665968993 33.7785817409836397 35.9649610051700250
 39.9829123665968993 33.7785817409836397 38.8499566724111389
 37.6067171214953717 35.5049886413940214 12.8849956672411139
 37.6067171214953717 35.5049886413940214 15.7699913344822278
 37.6067171214953717 35.5049886413940214 18.6549870017233417
 37.6067171214953717 35.5049886413940214 21.5399826689644556
 37.6067171214953717 35.5049886413940214 24.4249783362055695
 37.6067171214953717 35.5049886413940214 27.3099740034466834
 37.6067171214953717 35.5049886413940214 30.1949696706877972
 37.6067171214953717 35.5049886413940214 33.0799653379289111
 37.6067171214953717 35.5049886413940214 35.9649610051700250
 37.6067171214953717 35.5049886413940214 38.8499566724111389
 35.2305218763938512 37.2313955418044031 12.8849956672411139
 35.2305218763938512 37.2313955418044031 15.7699913344822278
 35.2305218763938512 37.2313955418044031 18.6549870017233417
 35.2305218763938512 37.2313955418044031 21.5399826689644556
 35.2305218763938512 37.2313955418044031 24.4249783362055695
 35.2305218763938512 37.2313955418044031 27.3099740034466834
 35.2305218763938512 37.2313955418044031 30.1949696706877972
 35.2305218763938512 37.2313955418044031 33.0799653379289111
 35.2305218763938512 37.2313955418044031 35.9649610051700250
 35.2305218763938512 37.2313955418044031 38.8499566724111389
 32.8543266312923308 35.5049886413940214 12.8849956672411139
 32.8543266312923308 35.5049886413940214 15.7699913344822278
 32.8543266312923308 35.5049886413940214 18.6549870017233417
 32.8543266312923308 35.5049886413940214 21.5399826689644556
 32.8543266312923308 35.5049886413940214 24.4249783362055695
 32.8543266312923308 35.5049886413940214 27.3099740034466834
 32.8543266312923308 35.5049886413940214 30.1949696706877972
 32.8543266312923308 35.5049886413940214 33.0799653379289111
 32.8543266312923308 35.5049886413940214 35.9649610051700250
 32.8543266312923308 35.5049886413940214 38.8499566724111389
 30.4781313861908068 33.7785817409836397 12.8849956672411139
 30.4781313861908068 33.7785817409836397 15.7699913344822278
 30.4781313861908068 33.7785817409836397 18.6549870017233417
 30.4781313861908068 33.7785817409836397 21.5399826689644556
 30.4781313861908068 33.7785817409836397 24.4249783362055695
 30.4781313861908068 33.7785817409836397 27.3099740034466834
 30.4781313861908068 33.7785817409836397 30.1949696706877972
 30.4781313861908068 33.7785817409836397 33.0799653379289111
 30.4781313861908068 33.7785817409836397 35.9649610051700250
 30.4781313861908068 33.7785817409836397 38.8499566724111389
 31.3857572059136984 30.9851966977072948 12.8849956672411139
 31.3857572059136984 30.9851966977072948 15.7699913344822278
 31.3857572059136984 30.9851966977072948 18.6549870017233417
 31.3857572059136984 30.9851966977072948 21.5399826689644556
 31.3857572059136984 30.9851966977072948 24.4249783362055695
 31.3857572059136984 30.9851966977072948 27.3099740034466834
 31.3857572059136984 30.9851966977072948 30.1949696706877972
 31.3857572059136984 30.9851966977072948 33.0799653379289111
 31.3857572059136984 30.9851966977072948 35.9649610051700250
 31.3857572059136984 30.9851966977072948 38.8499566724111389
 32.2933830256365937 28.1918116544309498 12.8849956672411139
 32.2933830256365937 28.1918116544309498 15.7699913344822278
 32.2933830256365937 28.1918116544309498 18.6549870017233417
 32.2933830256365937 28.1918116544309498 21.5399826689644556
 32.2933830256365937 28.1918116544309498 24.4249783362055695
 32.2933830256365937 28.1918116544309498 27.3099740034466834
 32.2933830256365937 28.1918116544309498 30.1949696706877972
 32.2933830256365937 28.1918116544309498 33.0799653379289111
 32.2933830256365937 28.1918116544309498 35.9649610051700250
 32.2933830256365937 28.1918116544309498 38.8499566724111389
 35.2305218763938512 28.1918116544309498 12.8849956672411139
 35.2305218763938512 28.1918116544309498 15.7699913344822278
 35.2305218763938512 28.1918116544309498 18.6549870017233417
 35.2305218763938512 28.1918116544309498 21.5399826689644556
 35.2305218763938512 28.1918116544309498 24.4249783362055695
 35.2305218763938512 28.1918116544309498 27.3099740034466834
 35.2305218763938512 28.1918116544309498 30.1949696706877972
 35.2305218763938512 28.1918116544309498 33.0799653379289111
 35.2305218763938512 28.1918116544309498 35.9649610051700250
 35.2305218763938512 28.1918116544309498 38.8499566724111389
 38.1676607271511088 28.1918116544309498 12.8849956672411139
 38.1676607271511088 28.1918116544309498 15.7699913344822278
 38.1676607271511088 28.1918116544309498 18.6549870017233417
 38.1676607271511088 28.1918116544309498 21.5399826689644556
 38.1676607271511088 28.1918116544309498 24.4249783362055695
 38.1676607271511088 28.1918116544309498 27.3099740034466834
 38.1676607271511088 28.1918116544309498 30.1949696706877972
 38.1676607271511088 28.1918116544309498 33.0799653379289111
 38.1676607271511088 28.1918116544309498 35.9649610051700250
 38.1676607271511088 28.1918116544309498 38.8499566724111389
 39.0752865468740040 30.9851966977072948 12.8849956672411139
 39.0752865468740040 30.9851966977072948 15.7699913344822278
 39.0752865468740040 30.9851966977072948 18.6549870017233417
 39.0752865468740040 30.9851966977072948 21.5399826689644556
 39.0752865468740040 30.9851966977072948 24.4249783362055695
 39.0752865468740040 30.9851966977072948 27.3099740034466834
 39.0752865468740040 30.9851966977072948 30.1949696706877972
 39.0752865468740040 30.9851966977072948 33.0799653379289111
 39.0752865468740040 30.9851966977072948 35.9649610051700250
 39.0752865468740040 30.9851966977072948 38.8499566724111389
 42.3591076116984198 34.5506543782121014 14.3274935008616708
 42.3591076116984198 34.5506543782121014 17.2124891681027847
 42.3591076116984198 34.5506543782121014 20.0974848353438986
 42.3591076116984198 34.5506543782121014 22.9824805025850125
 42.3591076116984198 34.5506543782121014 25.8674761698261264
 42.3591076116984198 34.5506543782121014 28.7524718370672403
 42.3591076116984198 34.5506543782121014 31.6374675043083542
 42.3591076116984198 34.5506543782121014 34.5224631715494681
 42.3591076116984198 34.5506543782121014 37.4074588387905820
 39.9829123665968993 36.2770612786224831 14.3274935008616708
 39.9829123665968993 36.2770612786224831 17.2124891681027847
 39.9829123665968993 36.2770612786224831 20.0974848353438986
 39.9829123665968993 36.2770612786224831 22.9824805025850125
 39.9829123665968993 36.2770612786224831 25.8674761698261264
 39.9829123665968993 36.2770612786224831 28.7524718370672403
 39.9829123665968993 36.2770612786224831 31.6374675043083542
 39.9829123665968993 36.2770612786224831 34.5224631715494681
 39.9829123665968993 36.2770612786224831 37.4074588387905820
 37.6067171214953717 38.0034681790328648 14.3274935008616708
 37.6067171214953717 38.0034681790328648 17.2124891681027847
 37.6067171214953717 38.0034681790328648 20.0974848353438986
 37.6067171214953717 38.0034681790328648 22.9824805025850125
 37.6067171214953717 38.0034681790328648 25.8674761698261264
 37.6067171214953717 38.0034681790328648 28.7524718370672403
 37.6067171214953717 38.0034681790328648 31.6374675043083542
 37.6067171214953717 38.0034681790328648 34.5224631715494681
 37.6067171214953717 38.0034681790328648 37.4074588387905820
 35.2305218763938512 39.7298750794432394 14.3274935008616708
 35.2305218763938512 39.7298750794432394 17.2124891681027847
 35.2305218763938512 39.7298750794432394 20.0974848353438986
 35.2305218763938512 39.7298750794432394 22.9824805025850125
 35.2305218763938512 39.7298750794432394 25.8674761698261264
 35.2305218763938512 39.7298750794432394 28.7524718370672403
 35.2305218763938512 39.7298750794432394 31.6374675043083542
 35.2305218763938512 39.7298750794432394 34.5224631715494681
 35.2305218763938512 39.7298750794432394 37.4074588387905820
 32.8543266312923308 38.0034681790328648 14.3274935008616708
 32.8543266312923308 38.0034681790328648 17.2124891681027847
 32.8543266312923308 38.0034681790328648 20.0974848353438986
 32.8543266312923308 38.0034681790328648 22.9824805025850125
 32.8543266312923308 38.0034681790328648 25.8674761698261264
 32.8543266312923308 38.0034681790328648 28.7524718370672403
 32.8543266312923308 38.0034681790328648 31.6374675043083542
 32.8543266312923308 38.0034681790328648 34.5224631715494681
 32.8543266312923308 38.0034681790328648 37.4074588387905820
 30.4781313861908068 36.2770612786224831 14.3274935008616708
 30.4781313861908068 36.2770612786224831 17.2124891681027847
 30.4781313861908068 36.2770612786224831 20.0974848353438986
 30.4781313861908068 36.2770612786224831 22.9824805025850125
 30.4781313861908068 36.2770612786224831 25.8674761698261264
 30.4781313861908068 36.2770612786224831 28.7524718370672403
 30.4781313861908068 36.2770612786224831 31.6374675043083542
 30.4781313861908068 36.2770612786224831 34.5224631715494681
 30.4781313861908068 36.2770612786224831 37.4074588387905820
 28.1019361410892827 34.5506543782121085 14.3274935008616708
 28.1019361410892827 34.5506543782121085 17.2124891681027847
 28.1019361410892827 34.5506543782121085 20.0974848353438986
 28.1019361410892827 34.5506543782121085 22.9824805025850125
 28.1019361410892827 34.5506543782121085 25.8674761698261264
 28.1019361410892827 34.5506543782121085 28.7524718370672403
 28.1019361410892827 34.5506543782121085 31.6374675043083542
 28.1019361410892827 34.5506543782121085 34.5224631715494681
 28.1019361410892827 34.5506543782121085 37.4074588387905820
 29.0095619608121780 31.7572693349357600 14.3274935008616708
 29.0095619608121780 31.7572693349357600 17.2124891681027847
 29.0095619608121780 31.7572693349357600 20.0974848353438986
 29.0095619608121780 31.7572693349357600 22.9824805025850125
 29.0095619608121780 31.7572693349357600 25.8674761698261264
 29.0095619608121780 31.7572693349357600 28.7524718370672403
 29.0095619608121780 31.7572693349357600 31.6374675043083542
 29.0095619608121780 31.7572693349357600 34.5224631715494681
 29.0095619608121780 31.7572693349357600 37.4074588387905820
 29.9171877805350732 28.9638842916594115 14.3274935008616708
 29.9171877805350732 28.9638842916594115 17.2124891681027847
 29.9171877805350732 28.9638842916594115 20.0974848353438986
 29.9171877805350732 28.9638842916594115 22.9824805025850125
 29.9171877805350732 28.9638842916594115 25.8674761698261264
 29.9171877805350732 28.9638842916594115 28.7524718370672403
 29.9171877805350732 28.9638842916594115 31.6374675043083542
 29.9171877805350732 28.9638842916594115 34.5224631715494681
 29.9171877805350732 28.9638842916594115 37.4074588387905820
 30.8248136002579685 26.1704992483830665 14.3274935008616708
 30.8248136002579685 26.1704992483830665 17.2124891681027847
 30.8248136002579685 26.1704992483830665 20.0974848353438986
 30.8248136002579685 26.1704992483830665 22.9824805025850125
 30.8248136002579685 26.1704992483830665 25.8674761698261264
 30.8248136002579685 26.1704992483830665 28.7524718370672403
 30.8248136002579685 26.1704992483830665 31.6374675043083542
 30.8248136002579685 26.1704992483830665 34.5224631715494681
 30.8248136002579685 26.1704992483830665 37.4074588387905820
 33.7619524510152189 26.1704992483830665 14.3274935008616708
 33.7619524510152189 26.1704992483830665 17.2124891681027847
 33.7619524510152189 26.1704992483830665 20.0974848353438986
 33.7619524510152189 26.1704992483830665 22.9824805025850125
 33.7619524510152189 26.1704992483830665 25.8674761698261264
 33.7619524510152189 26.1704992483830665 28.7524718370672403
 33.7619524510152189 26.1704992483830665 31.6374675043083542
 33.7619524510152189 26.1704992483830665 34.5224631715494681
 33.7619524510152189 26.1704992483830665 37.4074588387905820
 36.6990913017724765 26.1704992483830665 14.3274935008616708
 36.6990913017724765 26.1704992483830665 17.2124891681027847
 36.6990913017724765 26.1704992483830665 20.0974848353438986
 36.6990913017724765 26.1704992483830665 22.9824805025850125
 36.6990913017724765 26.1704992483830665 25.8674761698261264
 36.6990913017724765 26.1704992483830665 28.7524718370672403
 36.6990913017724765 26.1704992483830665 31.6374675043083542
 36.6990913017724765 26.1704992483830665 34.5224631715494681
 36.6990913017724765 26.1704992483830665 37.4074588387905820
 39.6362301525297340 26.1704992483830630 14.3274935008616708
 39.6362301525297340 26.1704992483830630 17.2124891681027847
 39.6362301525297340 26.1704992483830630 20.0974848353438986
 39.6362301525297340 26.1704992483830630 22.9824805025850125
 39.6362301525297340 26.1704992483830630 25.8674761698261264
 39.6362301525297340 26.1704992483830630 28.7524718370672403
 39.6362301525297340 26.1704992483830630 31.6374675043083542
 39.6362301525297340 26.1704992483830630 34.5224631715494681
 39.6362301525297340 26.1704992483830630 37.4074588387905820
 40.5438559722526293 28.9638842916594115 14.3274935008616708
 40.5438559722526293 28.9638842916594115 17.2124891681027847
 40.5438559722526293 28.9638842916594115 20.0974848353438986
 40.5438559722526293 28.9638842916594115 22.9824805025850125
 40.5438559722526293 28.9638842916594115 25.8674761698261264
 40.5438559722526293 28.9638842916594115 28.7524718370672403
 40.5438559722526293 28.9638842916594115 31.6374675043083542
 40.5438559722526293 28.9638842916594115 34.5224631715494681
 40.5438559722526293 28.9638842916594115 37.4074588387905820
 41.4514817919755245 31.7572693349357564 14.3274935008616708
 41.4514817919755245 31.7572693349357564 17.2124891681027847
 41.4514817919755245 31.7572693349357564 20.0974848353438986
 41.4514817919755245 31.7572693349357564 22.9824805025850125
 41.4514817919755245 31.7572693349357564 25.8674761698261264
 41.4514817919755245 31.7572693349357564 28.7524718370672403
 41.4514817919755245 31.7572693349357564 31.6374675043083542
 41.4514817919755245 31.7572693349357564 34.5224631715494681
 41.4514817919755245 31.7572693349357564 37.4074588387905820
 44.7353028567999402 35.3227270154405630 15.7699913344822278
 44.7353028567999402 35.3227270154405630 18.6549870017233417
 44.7353028567999402 35.3227270154405630 21.5399826689644556
 44.7353028567999402 35.3227270154405630 24.4249783362055695
 44.7353028567999402 35.3227270154405630 27.3099740034466834
 44.7353028567999402 35.3227270154405630 30.1949696706877972
 44.7353028567999402 35.3227270154405630 33.0799653379289111
 44.7353028567999402 35.3227270154405630 35.9649610051700250
 42.3591076116984198 37.0491339158509447 15.7699913344822278
 42.3591076116984198 37.0491339158509447 18.6549870017233417
 42.3591076116984198 37.0491339158509447 21.5399826689644556
 42.3591076116984198 37.0491339158509447 24.4249783362055695
 42.3591076116984198 37.0491339158509447 27.3099740034466834
 42.3591076116984198 37.0491339158509447 30.1949696706877972
 42.3591076116984198 37.0491339158509447 33.0799653379289111
 42.3591076116984198 37.0491339158509447 35.9649610051700250
 39.9829123665968993 38.7755408162613264 15.7699913344822278
 39.9829123665968993 38.7755408162613264 18.6549870017233417
 39.9829123665968993 38.7755408162613264 21.5399826689644556
 39.9829123665968993 38.7755408162613264 24.4249783362055695
 39.9829123665968993 38.7755408162613264 27.3099740034466834
 39.9829123665968993 38.7755408162613264 30.1949696706877972
 39.9829123665968993 38.7755408162613264 33.0799653379289111
 39.9829123665968993 38.7755408162613264 35.9649610051700250
 37.6067171214953717 40.5019477166717081 15.7699913344822278
 37.6067171214953717 40.5019477166717081 18.6549870017233417
 37.6067171214953717 40.5019477166717081 21.5399826689644556
 37.6067171214953717 40.5019477166717081 24.4249783362055695
 37.6067171214953717 40.5019477166717081 27.3099740034466834
 37.6067171214953717 40.5019477166717081 30.1949696706877972
 37.6067171214953717 40.5019477166717081 33.0799653379289111
 37.6067171214953717 40.5019477166717081 35.9649610051700250
 35.2305218763938512 42.2283546170820827 15.7699913344822278
 35.2305218763938512 42.2283546170820827 18.6549870017233417
 35.2305218763938512 42.2283546170820827 21.5399826689644556
 35.2305218763938512 42.2283546170820827 24.4249783362055695
 35.2305218763938512 42.2283546170820827 27.3099740034466834
 35.2305218763938512 42.2283546170820827 30.1949696706877972
 35.2305218763938512 42.2283546170820827 33.0799653379289111
 35.2305218763938512 42.2283546170820827 35.9649610051700250
 32.8543266312923308 40.5019477166717081 15.7699913344822278
 32.8543266312923308 40.5019477166717081 18.6549870017233417
 32.8543266312923308 40.5019477166717081 21.5399826689644556
 32.8543266312923308 40.5019477166717081 24.4249783362055695
 32.8543266312923308 40.5019477166717081 27.3099740034466834
 32.8543266312923308 40.5019477166717081 30.1949696706877972
 32.8543266312923308 40.5019477166717081 33.0799653379289111
 32.8543266312923308 40.5019477166717081 35.9649610051700250
 30.4781313861908068 38.7755408162613264 15.7699913344822278
 30.4781313861908068 38.7755408162613264 18.6549870017233417
 30.4781313861908068 38.7755408162613264 21.5399826689644556
 30.4781313861908068 38.7755408162613264 24.4249783362055695
 30.4781313861908068 38.7755408162613264 27.3099740034466834
 30.4781313861908068 38.7755408162613264 30.1949696706877972
 30.4781313861908068 38.7755408162613264 33.0799653379289111
 30.4781313861908068 38.7755408162613264 35.9649610051700250
 28.1019361410892827 37.0491339158509447 15.7699913344822278
 28.1019361410892827 37.0491339158509447 18.6549870017233417
 28.1019361410892827 37.0491339158509447 21.5399826689644556
 28.1019361410892827 37.0491339158509447 24.4249783362055695
 28.1019361410892827 37.0491339158509447 27.3099740034466834
 28.1019361410892827 37.0491339158509447 30.1949696706877972
 28.1019361410892827 37.0491339158509447 33.0799653379289111
 28.1019361410892827 37.0491339158509447 35.9649610051700250
 25.7257408959877623 35.3227270154405701 15.7699913344822278
 25.7257408959877623 35.3227270154405701 18.6549870017233417
 25.7257408959877623 35.3227270154405701 21.5399826689644556
 25.7257408959877623 35.3227270154405701 24.4249783362055695
 25.7257408959877623 35.3227270154405701 27.3099740034466834
 25.7257408959877623 35.3227270154405701 30.1949696706877972
 25.7257408959877623 35.3227270154405701 33.0799653379289111
 25.7257408959877623 35.3227270154405701 35.9649610051700250
 26.6333667157106539 32.5293419721642252 15.7699913344822278
 26.6333667157106539 32.5293419721642252 18.6549870017233417
 26.6333667157106539 32.5293419721642252 21.5399826689644556
 26.6333667157106539 32.5293419721642252 24.4249783362055695
 26.6333667157106539 32.5293419721642252 27.3099740034466834
 26.6333667157106539 32.5293419721642252 30.1949696706877972
 26.6333667157106539 32.5293419721642252 33.0799653379289111
 26.6333667157106539 32.5293419721642252 35.9649610051700250
 27.5409925354335492 29.7359569288878767 15.7699913344822278
 27.5409925354335492 29.7359569288878767 18.6549870017233417
 27.5409925354335492 29.7359569288878767 21.5399826689644556
 27.5409925354335492 29.7359569288878767 24.4249783362055695
 27.5409925354335492 29.7359569288878767 27.3099740034466834
 27.5409925354335492 29.7359569288878767 30.1949696706877972
 27.5409925354335492 29.7359569288878767 33.0799653379289111
 27.5409925354335492 29.7359569288878767 35.9649610051700250
 28.4486183551564444 26.9425718856115282 15.7699913344822278
 28.4486183551564444 26.9425718856115282 18.6549870017233417
 28.4486183551564444 26.9425718856115282 21.5399826689644556
 28.4486183551564444 26.9425718856115282 24.4249783362055695
 28.4486183551564444 26.9425718856115282 27.3099740034466834
 28.4486183551564444 26.9425718856115282 30.1949696706877972
 28.4486183551564444 26.9425718856115282 33.0799653379289111
 28.4486183551564444 26.9425718856115282 35.9649610051700250
 29.3562441748793361 24.1491868423351832 15.7699913344822278
 29.3562441748793361 24.1491868423351832 18.6549870017233417
 29.3562441748793361 24.1491868423351832 21.5399826689644556
 29.3562441748793361 24.1491868423351832 24.4249783362055695
 29.3562441748793361 24.1491868423351832 27.3099740034466834
 29.3562441748793361 24.1491868423351832 30.1949696706877972
 29.3562441748793361 24.1491868423351832 33.0799653379289111
 29.3562441748793361 24.1491868423351832 35.9649610051700250
 32.2933830256365937 24.1491868423351796 15.7699913344822278
 32.2933830256365937 24.1491868423351796 18.6549870017233417
 32.2933830256365937 24.1491868423351796 21.5399826689644556
 32.2933830256365937 24.1491868423351796 24.4249783362055695
 32.2933830256365937 24.1491868423351796 27.3099740034466834
 32.2933830256365937 24.1491868423351796 30.1949696706877972
 32.2933830256365937 24.1491868423351796 33.0799653379289111
 32.2933830256365937 24.1491868423351796 35.9649610051700250
 35.2305218763938512 24.1491868423351796 15.7699913344822278
 35.2305218763938512 24.1491868423351796 18.6549870017233417
 35.2305218763938512 24.1491868423351796 21.5399826689644556
 35.2305218763938512 24.1491868423351796 24.4249783362055695
 35.2305218763938512 24.1491868423351796 27.3099740034466834
 35.2305218763938512 24.1491868423351796 30.1949696706877972
 35.2305218763938512 24.1491868423351796 33.0799653379289111
 35.2305218763938512 24.1491868423351796 35.9649610051700250
 38.1676607271511088 24.1491868423351796 15.7699913344822278
 38.1676607271511088 24.1491868423351796 18.6549870017233417
 38.1676607271511088 24.1491868423351796 21.5399826689644556
 38.1676607271511088 24.1491868423351796 24.4249783362055695
 38.1676607271511088 24.1491868423351796 27.3099740034466834
 38.1676607271511088 24.1491868423351796 30.1949696706877972
 38.1676607271511088 24.1491868423351796 33.0799653379289111
 38.1676607271511088 24.1491868423351796 35.9649610051700250
 41.1047995779083593 24.1491868423351796 15.7699913344822278
 41.1047995779083593 24.1491868423351796 18.6549870017233417
 41.1047995779083593 24.1491868423351796 21.5399826689644556
 41.1047995779083593 24.1491868423351796 24.4249783362055695
 41.1047995779083593 24.1491868423351796 27.3099740034466834
 41.1047995779083593 24.1491868423351796 30.1949696706877972
 41.1047995779083593 24.1491868423351796 33.0799653379289111
 41.1047995779083593 24.1491868423351796 35.9649610051700250
 42.0124253976312545 26.9425718856115282 15.7699913344822278
 42.0124253976312545 26.9425718856115282 18.6549870017233417
 42.0124253976312545 26.9425718856115282 21.5399826689644556
 42.0124253976312545 26.9425718856115282 24.4249783362055695
 42.0124253976312545 26.9425718856115282 27.3099740034466834
 42.0124253976312545 26.9425718856115282 30.1949696706877972
 42.0124253976312545 26.9425718856115282 33.0799653379289111
 42.0124253976312545 26.9425718856115282 35.9649610051700250
 42.9200512173541497 29.7359569288878731 15.7699913344822278
 42.9200512173541497 29.7359569288878731 18.6549870017233417
 42.9200512173541497 29.7359569288878731 21.5399826689644556
 42.9200512173541497 29.7359569288878731 24.4249783362055695
 42.9200512173541497 29.7359569288878731 27.3099740034466834
 42.9200512173541497 29.7359569288878731 30.1949696706877972
 42.9200512173541497 29.7359569288878731 33.0799653379289111
 42.9200512173541497 29.7359569288878731 35.9649610051700250
 43.8276770370770450 32.5293419721642181 15.7699913344822278
 43.8276770370770450 32.5293419721642181 18.6549870017233417
 43.8276770370770450 32.5293419721642181 21.5399826689644556
 43.8276770370770450 32.5293419721642181 24.4249783362055695
 43.8276770370770450 32.5293419721642181 27.3099740034466834
 43.8276770370770450 32.5293419721642181 30.1949696706877972
 43.8276770370770450 32.5293419721642181 33.0799653379289111
 43.8276770370770450 32.5293419721642181 35.9649610051700250
 47.1114981019014607 36.0947996526690318 17.2124891681027847
 47.1114981019014607 36.0947996526690318 20.0974848353438986
 47.1114981019014607 36.0947996526690318 22.9824805025850125
 47.1114981019014607 36.0947996526690318 25.8674761698261264
 47.1114981019014607 36.0947996526690318 28.7524718370672403
 47.1114981019014607 36.0947996526690318 31.6374675043083542
 47.1114981019014607 36.0947996526690318 34.5224631715494681
 44.7353028567999402 37.8212065530794064 17.2124891681027847
 44.7353028567999402 37.8212065530794064 20.0974848353438986
 44.7353028567999402 37.8212065530794064 22.9824805025850125
 44.7353028567999402 37.8212065530794064 25.8674761698261264
 44.7353028567999402 37.8212065530794064 28.7524718370672403
 44.7353028567999402 37.8212065530794064 31.6374675043083542
 44.7353028567999402 37.8212065530794064 34.5224631715494681
 42.3591076116984198 39.5476134534897881 17.2124891681027847
 42.3591076116984198 39.5476134534897881 20.0974848353438986
 42.3591076116984198 39.5476134534897881 22.9824805025850125
 42.3591076116984198 39.5476134534897881 25.8674761698261264
 42.3591076116984198 39.5476134534897881 28.7524718370672403
 42.3591076116984198 39.5476134534897881 31.6374675043083542
 42.3591076116984198 39.5476134534897881 34.5224631715494681
 39.9829123665968993 41.2740203539001698 17.2124891681027847
 39.9829123665968993 41.2740203539001698 20.0974848353438986
 39.9829123665968993 41.2740203539001698 22.9824805025850125
 39.9829123665968993 41.2740203539001698 25.8674761698261264