Au 
 1.0000000000000000
    28.1600000000000001    0.0000000000000000    0.0000000000000000
     0.0000000000000000   28.1600000000000001    0.0000000000000000
     0.0000000000000000    0.0000000000000000   28.1600000000000001
 Au 
  38
Cartesian
 10.0000000000000000 12.0399999999999991 14.0799999999999983
 10.0000000000000000 14.0799999999999983 12.0399999999999991
 10.0000000000000000 14.0799999999999983 16.1199999999999974
 10.0000000000000000 16.1199999999999974 14.0799999999999983
 12.0399999999999991 10.0000000000000000 14.0799999999999983
 14.0799999999999983 10.0000000000000000 12.0399999999999991
 14.0799999999999983 10.0000000000000000 16.1199999999999974
 12.0399999999999991 14.0799999999999983 10.0000000000000000
 14.0799999999999983 12.0399999999999991 10.0000000000000000
 12.0399999999999991 12.0399999999999991 12.0399999999999991
 12.0399999999999991 14.0799999999999983 14.0799999999999983
 14.0799999999999983 12.0399999999999991 14.0799999999999983
 14.0799999999999983 14.0799999999999983 12.0399999999999991
 12.0399999999999991 12.0399999999999991 16.1199999999999974
 12.0399999999999991 14.0799999999999983 18.1599999999999966
 14.0799999999999983 12.0399999999999991 18.1599999999999966
 14.0799999999999983 14.0799999999999983 16.1199999999999974
 14.0799999999999983 16.1199999999999974 10.0000000000000000
 12.0399999999999991 16.1199999999999974 12.0399999999999991
 12.0399999999999991 18.1599999999999966 14.0799999999999983
 14.0799999999999983 16.1199999999999974 14.0799999999999983
 14.0799999999999983 18.1599999999999966 12.0399999999999991
 12.0399999999999991 16.1199999999999974 16.1199999999999974
 14.0799999999999983 16.1199999999999974 18.1599999999999966
 14.0799999999999983 18.1599999999999966 16.1199999999999974
 16.1199999999999974 10.0000000000000000 14.0799999999999983
 16.1199999999999974 14.0799999999999983 10.0000000000000000
 16.1199999999999974 12.0399999999999991 12.0399999999999991
 16.1199999999999974 14.0799999999999983 14.0799999999999983
 18.1599999999999966 12.0399999999999991 14.0799999999999983
 18.1599999999999966 14.0799999999999983 12.0399999999999991
 16.1199999999999974 12.0399999999999991 16.1199999999999974
 16.1199999999999974 14.0799999999999983 18.1599999999999966
 18.1599999999999966 14.0799999999999983 16.1199999999999974
 16.1199999999999974 16.1199999999999974 12.0399999999999991
 16.1199999999999974 18.1599999999999966 14.0799999999999983
 18.1599999999999966 16.1199999999999974 14.0799999999999983
 16.1199999999999974 16.1199999999999974 16.1199999999999974
