Pt 
 1.0000000000000000
    33.6980667070558368    0.0000000000000000    0.0000000000000000
     0.0000000000000000   33.0276356023911504    0.0000000000000000
     0.0000000000000000    0.0000000000000000   39.4030100757588642
 Pt 
 178
Cartesian
 16.8490333535279184 15.8261357586086078 10.0000000000000000
 16.8490333535279184 15.8261357586086078 12.7718585822512658
 16.8490333535279184 15.8261357586086078 15.5437171645025316
 16.8490333535279184 15.8261357586086078 18.3155757467538010
 16.8490333535279184 15.8261357586086078 21.0874343290050632
 16.8490333535279184 15.8261357586086078 23.8592929112563326
 16.8490333535279184 15.8261357586086078 26.6311514935075984
 16.8490333535279184 15.8261357586086078 29.4030100757588642
 19.1320444713705591 16.5679310375143842 11.3859292911256329
 19.1320444713705591 16.5679310375143842 14.1577878733768987
 19.1320444713705591 16.5679310375143842 16.9296464556281663
 19.1320444713705591 16.5679310375143842 19.7015050378794321
 19.1320444713705591 16.5679310375143842 22.4733636201306979
 19.1320444713705591 16.5679310375143842 25.2452222023819637
 19.1320444713705591 16.5679310375143842 28.0170807846332295
 16.8490333535279184 18.2266357065361220 11.3859292911256329
 16.8490333535279184 18.2266357065361220 14.1577878733768987
 16.8490333535279184 18.2266357065361220 16.9296464556281663
 16.8490333535279184 18.2266357065361220 19.7015050378794321
 16.8490333535279184 18.2266357065361220 22.4733636201306979
 16.8490333535279184 18.2266357065361220 25.2452222023819637
 16.8490333535279184 18.2266357065361220 28.0170807846332295
 14.5660222356852795 16.5679310375143878 11.3859292911256329
 14.5660222356852795 16.5679310375143878 14.1577878733768987
 14.5660222356852795 16.5679310375143878 16.9296464556281663
 14.5660222356852795 16.5679310375143878 19.7015050378794321
 14.5660222356852795 16.5679310375143878 22.4733636201306979
 14.5660222356852795 16.5679310375143878 25.2452222023819637
 14.5660222356852795 16.5679310375143878 28.0170807846332295
 15.4380548860072757 13.8840905057390724 11.3859292911256329
 15.4380548860072757 13.8840905057390724 14.1577878733768987
 15.4380548860072757 13.8840905057390724 16.9296464556281663
 15.4380548860072757 13.8840905057390724 19.7015050378794321
 15.4380548860072757 13.8840905057390724 22.4733636201306979
 15.4380548860072757 13.8840905057390724 25.2452222023819637
 15.4380548860072757 13.8840905057390724 28.0170807846332295
 18.2600118210485611 13.8840905057390724 11.3859292911256329
 18.2600118210485611 13.8840905057390724 14.1577878733768987
 18.2600118210485611 13.8840905057390724 16.9296464556281663
 18.2600118210485611 13.8840905057390724 19.7015050378794321
 18.2600118210485611 13.8840905057390724 22.4733636201306979
 18.2600118210485611 13.8840905057390724 25.2452222023819637
 18.2600118210485611 13.8840905057390724 28.0170807846332295
 21.4150555892131962 17.3097263164201642 12.7718585822512658
 21.4150555892131962 17.3097263164201642 15.5437171645025334
 21.4150555892131962 17.3097263164201642 18.3155757467538010
 21.4150555892131962 17.3097263164201642 21.0874343290050668
 21.4150555892131962 17.3097263164201642 23.8592929112563326
 21.4150555892131962 17.3097263164201642 26.6311514935075984
 19.1320444713705591 18.9684309854418984 12.7718585822512658
 19.1320444713705591 18.9684309854418984 15.5437171645025334
 19.1320444713705591 18.9684309854418984 18.3155757467538010
 19.1320444713705591 18.9684309854418984 21.0874343290050668
 19.1320444713705591 18.9684309854418984 23.8592929112563326
 19.1320444713705591 18.9684309854418984 26.6311514935075984
 16.8490333535279184 20.6271356544636362 12.7718585822512658
 16.8490333535279184 20.6271356544636362 15.5437171645025334
 16.8490333535279184 20.6271356544636362 18.3155757467538010
 16.8490333535279184 20.6271356544636362 21.0874343290050668
 16.8490333535279184 20.6271356544636362 23.8592929112563326
 16.8490333535279184 20.6271356544636362 26.6311514935075984
 14.5660222356852795 18.9684309854418984 12.7718585822512658
 14.5660222356852795 18.9684309854418984 15.5437171645025334
 14.5660222356852795 18.9684309854418984 18.3155757467538010
 14.5660222356852795 18.9684309854418984 21.0874343290050668
 14.5660222356852795 18.9684309854418984 23.8592929112563326
 14.5660222356852795 18.9684309854418984 26.6311514935075984
 12.2830111178426407 17.3097263164201642 12.7718585822512658
 12.2830111178426407 17.3097263164201642 15.5437171645025334
 12.2830111178426407 17.3097263164201642 18.3155757467538010
 12.2830111178426407 17.3097263164201642 21.0874343290050668
 12.2830111178426407 17.3097263164201642 23.8592929112563326
 12.2830111178426407 17.3097263164201642 26.6311514935075984
 13.1550437681646351 14.6258857846448507 12.7718585822512658
 13.1550437681646351 14.6258857846448507 15.5437171645025334
 13.1550437681646351 14.6258857846448507 18.3155757467538010
 13.1550437681646351 14.6258857846448507 21.0874343290050668
 13.1550437681646351 14.6258857846448507 23.8592929112563326
 13.1550437681646351 14.6258857846448507 26.6311514935075984
 14.0270764184866330 11.9420452528695371 12.7718585822512658
 14.0270764184866330 11.9420452528695371 15.5437171645025334
 14.0270764184866330 11.9420452528695371 18.3155757467538010
 14.0270764184866330 11.9420452528695371 21.0874343290050668
 14.0270764184866330 11.9420452528695371 23.8592929112563326
 14.0270764184866330 11.9420452528695371 26.6311514935075984
 16.8490333535279184 11.9420452528695371 12.7718585822512658
 16.8490333535279184 11.9420452528695371 15.5437171645025334
 16.8490333535279184 11.9420452528695371 18.3155757467538010
 16.8490333535279184 11.9420452528695371 21.0874343290050668
 16.8490333535279184 11.9420452528695371 23.8592929112563326
 16.8490333535279184 11.9420452528695371 26.6311514935075984
 19.6709902885692038 11.9420452528695371 12.7718585822512658
 19.6709902885692038 11.9420452528695371 15.5437171645025334
 19.6709902885692038 11.9420452528695371 18.3155757467538010
 19.6709902885692038 11.9420452528695371 21.0874343290050668
 19.6709902885692038 11.9420452528695371 23.8592929112563326
 19.6709902885692038 11.9420452528695371 26.6311514935075984
 20.5430229388911982 14.6258857846448507 12.7718585822512658
 20.5430229388911982 14.6258857846448507 15.5437171645025334
 20.5430229388911982 14.6258857846448507 18.3155757467538010
 20.5430229388911982 14.6258857846448507 21.0874343290050668
 20.5430229388911982 14.6258857846448507 23.8592929112563326
 20.5430229388911982 14.6258857846448507 26.6311514935075984
 23.6980667070558368 18.0515215953259407 14.1577878733769005
 23.6980667070558368 18.0515215953259407 16.9296464556281663
 23.6980667070558368 18.0515215953259407 19.7015050378794321
 23.6980667070558368 18.0515215953259407 22.4733636201306979
 23.6980667070558368 18.0515215953259407 25.2452222023819637
 21.4150555892131962 19.7102262643476784 14.1577878733769005
 21.4150555892131962 19.7102262643476784 16.9296464556281663
 21.4150555892131962 19.7102262643476784 19.7015050378794321
 21.4150555892131962 19.7102262643476784 22.4733636201306979
 21.4150555892131962 19.7102262643476784 25.2452222023819637
 19.1320444713705591 21.3689309333694126 14.1577878733769005
 19.1320444713705591 21.3689309333694126 16.9296464556281663
 19.1320444713705591 21.3689309333694126 19.7015050378794321
 19.1320444713705591 21.3689309333694126 22.4733636201306979
 19.1320444713705591 21.3689309333694126 25.2452222023819637
 16.8490333535279184 23.0276356023911504 14.1577878733769005
 16.8490333535279184 23.0276356023911504 16.9296464556281663
 16.8490333535279184 23.0276356023911504 19.7015050378794321
 16.8490333535279184 23.0276356023911504 22.4733636201306979
 16.8490333535279184 23.0276356023911504 25.2452222023819637
 14.5660222356852795 21.3689309333694126 14.1577878733769005
 14.5660222356852795 21.3689309333694126 16.9296464556281663
 14.5660222356852795 21.3689309333694126 19.7015050378794321
 14.5660222356852795 21.3689309333694126 22.4733636201306979
 14.5660222356852795 21.3689309333694126 25.2452222023819637
 12.2830111178426407 19.7102262643476784 14.1577878733769005
 12.2830111178426407 19.7102262643476784 16.9296464556281663
 12.2830111178426407 19.7102262643476784 19.7015050378794321
 12.2830111178426407 19.7102262643476784 22.4733636201306979
 12.2830111178426407 19.7102262643476784 25.2452222023819637
 10.0000000000000000 18.0515215953259442 14.1577878733769005
 10.0000000000000000 18.0515215953259442 16.9296464556281663
 10.0000000000000000 18.0515215953259442 19.7015050378794321
 10.0000000000000000 18.0515215953259442 22.4733636201306979
 10.0000000000000000 18.0515215953259442 25.2452222023819637
 10.8720326503219979 15.3676810635506289 14.1577878733769005
 10.8720326503219979 15.3676810635506289 16.9296464556281663
 10.8720326503219979 15.3676810635506289 19.7015050378794321
 10.8720326503219979 15.3676810635506289 22.4733636201306979
 10.8720326503219979 15.3676810635506289 25.2452222023819637
 11.7440653006439923 12.6838405317753171 14.1577878733769005
 11.7440653006439923 12.6838405317753171 16.9296464556281663
 11.7440653006439923 12.6838405317753171 19.7015050378794321
 11.7440653006439923 12.6838405317753171 22.4733636201306979
 11.7440653006439923 12.6838405317753171 25.2452222023819637
 12.6160979509659903 10.0000000000000036 14.1577878733769005
 12.6160979509659903 10.0000000000000036 16.9296464556281663
 12.6160979509659903 10.0000000000000036 19.7015050378794321
 12.6160979509659903 10.0000000000000036 22.4733636201306979
 12.6160979509659903 10.0000000000000036 25.2452222023819637
 15.4380548860072739 10.0000000000000018 14.1577878733769005
 15.4380548860072739 10.0000000000000018 16.9296464556281663
 15.4380548860072739 10.0000000000000018 19.7015050378794321
 15.4380548860072739 10.0000000000000018 22.4733636201306979
 15.4380548860072739 10.0000000000000018 25.2452222023819637
 18.2600118210485611 10.0000000000000000 14.1577878733769005
 18.2600118210485611 10.0000000000000000 16.9296464556281663
 18.2600118210485611 10.0000000000000000 19.7015050378794321
 18.2600118210485611 10.0000000000000000 22.4733636201306979
 18.2600118210485611 10.0000000000000000 25.2452222023819637
 21.0819687560898430 10.0000000000000000 14.1577878733769005
 21.0819687560898430 10.0000000000000000 16.9296464556281663
 21.0819687560898430 10.0000000000000000 19.7015050378794321
 21.0819687560898430 10.0000000000000000 22.4733636201306979
 21.0819687560898430 10.0000000000000000 25.2452222023819637
 21.9540014064118409 12.6838405317753136 14.1577878733769005
 21.9540014064118409 12.6838405317753136 16.9296464556281663
 21.9540014064118409 12.6838405317753136 19.7015050378794321
 21.9540014064118409 12.6838405317753136 22.4733636201306979
 21.9540014064118409 12.6838405317753136 25.2452222023819637
 22.8260340567338389 15.3676810635506271 14.1577878733769005
 22.8260340567338389 15.3676810635506271 16.9296464556281663
 22.8260340567338389 15.3676810635506271 19.7015050378794321
 22.8260340567338389 15.3676810635506271 22.4733636201306979
 22.8260340567338389 15.3676810635506271 25.2452222023819637
