Au 
 1.0000000000000000
    63.8934016231388711    0.0000000000000000    0.0000000000000000
     0.0000000000000000   61.7451056360465032    0.0000000000000000
     0.0000000000000000    0.0000000000000000   51.7349523396522528
 Au 
 1342
Cartesian
 31.9467008115694355 30.2131240604788438 10.0000000000000000
 31.9467008115694355 30.2131240604788438 12.8849956672411139
 31.9467008115694355 30.2131240604788438 15.7699913344822278
 31.9467008115694355 30.2131240604788438 18.6549870017233417
 31.9467008115694355 30.2131240604788438 21.5399826689644556
 31.9467008115694355 30.2131240604788438 24.4249783362055695
 31.9467008115694355 30.2131240604788438 27.3099740034466834
 31.9467008115694355 30.2131240604788438 30.1949696706877972
 31.9467008115694355 30.2131240604788438 33.0799653379289111
 31.9467008115694355 30.2131240604788438 35.9649610051700250
 31.9467008115694355 30.2131240604788438 38.8499566724111389
 31.9467008115694355 30.2131240604788438 41.7349523396522528
 34.3228960566709560 30.9851966977073054 11.4424978336205569
 34.3228960566709560 30.9851966977073054 14.3274935008616708
 34.3228960566709560 30.9851966977073054 17.2124891681027847
 34.3228960566709560 30.9851966977073054 20.0974848353438986
 34.3228960566709560 30.9851966977073054 22.9824805025850125
 34.3228960566709560 30.9851966977073054 25.8674761698261264
 34.3228960566709560 30.9851966977073054 28.7524718370672403
 34.3228960566709560 30.9851966977073054 31.6374675043083542
 34.3228960566709560 30.9851966977073054 34.5224631715494681
 34.3228960566709560 30.9851966977073054 37.4074588387905820
 34.3228960566709560 30.9851966977073054 40.2924545060316959
 31.9467008115694355 32.7116035981176836 11.4424978336205569
 31.9467008115694355 32.7116035981176836 14.3274935008616708
 31.9467008115694355 32.7116035981176836 17.2124891681027847
 31.9467008115694355 32.7116035981176836 20.0974848353438986
 31.9467008115694355 32.7116035981176836 22.9824805025850125
 31.9467008115694355 32.7116035981176836 25.8674761698261264
 31.9467008115694355 32.7116035981176836 28.7524718370672403
 31.9467008115694355 32.7116035981176836 31.6374675043083542
 31.9467008115694355 32.7116035981176836 34.5224631715494681
 31.9467008115694355 32.7116035981176836 37.4074588387905820
 31.9467008115694355 32.7116035981176836 40.2924545060316959
 29.5705055664679115 30.9851966977073054 11.4424978336205569
 29.5705055664679115 30.9851966977073054 14.3274935008616708
 29.5705055664679115 30.9851966977073054 17.2124891681027847
 29.5705055664679115 30.9851966977073054 20.0974848353438986
 29.5705055664679115 30.9851966977073054 22.9824805025850125
 29.5705055664679115 30.9851966977073054 25.8674761698261264
 29.5705055664679115 30.9851966977073054 28.7524718370672403
 29.5705055664679115 30.9851966977073054 31.6374675043083542
 29.5705055664679115 30.9851966977073054 34.5224631715494681
 29.5705055664679115 30.9851966977073054 37.4074588387905820
 29.5705055664679115 30.9851966977073054 40.2924545060316959
 30.4781313861908068 28.1918116544309605 11.4424978336205569
 30.4781313861908068 28.1918116544309605 14.3274935008616708
 30.4781313861908068 28.1918116544309605 17.2124891681027847
 30.4781313861908068 28.1918116544309605 20.0974848353438986
 30.4781313861908068 28.1918116544309605 22.9824805025850125
 30.4781313861908068 28.1918116544309605 25.8674761698261264
 30.4781313861908068 28.1918116544309605 28.7524718370672403
 30.4781313861908068 28.1918116544309605 31.6374675043083542
 30.4781313861908068 28.1918116544309605 34.5224631715494681
 30.4781313861908068 28.1918116544309605 37.4074588387905820
 30.4781313861908068 28.1918116544309605 40.2924545060316959
 33.4152702369480608 28.1918116544309605 11.4424978336205569
 33.4152702369480608 28.1918116544309605 14.3274935008616708
 33.4152702369480608 28.1918116544309605 17.2124891681027847
 33.4152702369480608 28.1918116544309605 20.0974848353438986
 33.4152702369480608 28.1918116544309605 22.9824805025850125
 33.4152702369480608 28.1918116544309605 25.8674761698261264
 33.4152702369480608 28.1918116544309605 28.7524718370672403
 33.4152702369480608 28.1918116544309605 31.6374675043083542
 33.4152702369480608 28.1918116544309605 34.5224631715494681
 33.4152702369480608 28.1918116544309605 37.4074588387905820
 33.4152702369480608 28.1918116544309605 40.2924545060316959
 36.6990913017724836 31.7572693349357706 12.8849956672411139
 36.6990913017724836 31.7572693349357706 15.7699913344822278
 36.6990913017724836 31.7572693349357706 18.6549870017233417
 36.6990913017724836 31.7572693349357706 21.5399826689644556
 36.6990913017724836 31.7572693349357706 24.4249783362055695
 36.6990913017724836 31.7572693349357706 27.3099740034466834
 36.6990913017724836 31.7572693349357706 30.1949696706877972
 36.6990913017724836 31.7572693349357706 33.0799653379289111
 36.6990913017724836 31.7572693349357706 35.9649610051700250
 36.6990913017724836 31.7572693349357706 38.8499566724111389
 34.3228960566709560 33.4836762353461452 12.8849956672411139
 34.3228960566709560 33.4836762353461452 15.7699913344822278
 34.3228960566709560 33.4836762353461452 18.6549870017233417
 34.3228960566709560 33.4836762353461452 21.5399826689644556
 34.3228960566709560 33.4836762353461452 24.4249783362055695
 34.3228960566709560 33.4836762353461452 27.3099740034466834
 34.3228960566709560 33.4836762353461452 30.1949696706877972
 34.3228960566709560 33.4836762353461452 33.0799653379289111
 34.3228960566709560 33.4836762353461452 35.9649610051700250
 34.3228960566709560 33.4836762353461452 38.8499566724111389
 31.9467008115694355 35.2100831357565269 12.8849956672411139
 31.9467008115694355 35.2100831357565269 15.7699913344822278
 31.9467008115694355 35.2100831357565269 18.6549870017233417
 31.9467008115694355 35.2100831357565269 21.5399826689644556
 31.9467008115694355 35.2100831357565269 24.4249783362055695
 31.9467008115694355 35.2100831357565269 27.3099740034466834
 31.9467008115694355 35.2100831357565269 30.1949696706877972
 31.9467008115694355 35.2100831357565269 33.0799653379289111
 31.9467008115694355 35.2100831357565269 35.9649610051700250
 31.9467008115694355 35.2100831357565269 38.8499566724111389
 29.5705055664679115 33.4836762353461523 12.8849956672411139
 29.5705055664679115 33.4836762353461523 15.7699913344822278
 29.5705055664679115 33.4836762353461523 18.6549870017233417
 29.5705055664679115 33.4836762353461523 21.5399826689644556
 29.5705055664679115 33.4836762353461523 24.4249783362055695
 29.5705055664679115 33.4836762353461523 27.3099740034466834
 29.5705055664679115 33.4836762353461523 30.1949696706877972
 29.5705055664679115 33.4836762353461523 33.0799653379289111
 29.5705055664679115 33.4836762353461523 35.9649610051700250
 29.5705055664679115 33.4836762353461523 38.8499566724111389
 27.1943103213663910 31.7572693349357706 12.8849956672411139
 27.1943103213663910 31.7572693349357706 15.7699913344822278
 27.1943103213663910 31.7572693349357706 18.6549870017233417
 27.1943103213663910 31.7572693349357706 21.5399826689644556
 27.1943103213663910 31.7572693349357706 24.4249783362055695
 27.1943103213663910 31.7572693349357706 27.3099740034466834
 27.1943103213663910 31.7572693349357706 30.1949696706877972
 27.1943103213663910 31.7572693349357706 33.0799653379289111
 27.1943103213663910 31.7572693349357706 35.9649610051700250
 27.1943103213663910 31.7572693349357706 38.8499566724111389
 28.1019361410892827 28.9638842916594221 12.8849956672411139
 28.1019361410892827 28.9638842916594221 15.7699913344822278
 28.1019361410892827 28.9638842916594221 18.6549870017233417
 28.1019361410892827 28.9638842916594221 21.5399826689644556
 28.1019361410892827 28.9638842916594221 24.4249783362055695
 28.1019361410892827 28.9638842916594221 27.3099740034466834
 28.1019361410892827 28.9638842916594221 30.1949696706877972
 28.1019361410892827 28.9638842916594221 33.0799653379289111
 28.1019361410892827 28.9638842916594221 35.9649610051700250
 28.1019361410892827 28.9638842916594221 38.8499566724111389
 29.0095619608121780 26.1704992483830772 12.8849956672411139
 29.0095619608121780 26.1704992483830772 15.7699913344822278
 29.0095619608121780 26.1704992483830772 18.6549870017233417
 29.0095619608121780 26.1704992483830772 21.5399826689644556
 29.0095619608121780 26.1704992483830772 24.4249783362055695
 29.0095619608121780 26.1704992483830772 27.3099740034466834
 29.0095619608121780 26.1704992483830772 30.1949696706877972
 29.0095619608121780 26.1704992483830772 33.0799653379289111
 29.0095619608121780 26.1704992483830772 35.9649610051700250
 29.0095619608121780 26.1704992483830772 38.8499566724111389
 31.9467008115694355 26.1704992483830736 12.8849956672411139
 31.9467008115694355 26.1704992483830736 15.7699913344822278
 31.9467008115694355 26.1704992483830736 18.6549870017233417
 31.9467008115694355 26.1704992483830736 21.5399826689644556
 31.9467008115694355 26.1704992483830736 24.4249783362055695
 31.9467008115694355 26.1704992483830736 27.3099740034466834
 31.9467008115694355 26.1704992483830736 30.1949696706877972
 31.9467008115694355 26.1704992483830736 33.0799653379289111
 31.9467008115694355 26.1704992483830736 35.9649610051700250
 31.9467008115694355 26.1704992483830736 38.8499566724111389
 34.8838396623266931 26.1704992483830736 12.8849956672411139
 34.8838396623266931 26.1704992483830736 15.7699913344822278
 34.8838396623266931 26.1704992483830736 18.6549870017233417
 34.8838396623266931 26.1704992483830736 21.5399826689644556
 34.8838396623266931 26.1704992483830736 24.4249783362055695
 34.8838396623266931 26.1704992483830736 27.3099740034466834
 34.8838396623266931 26.1704992483830736 30.1949696706877972
 34.8838396623266931 26.1704992483830736 33.0799653379289111
 34.8838396623266931 26.1704992483830736 35.9649610051700250
 34.8838396623266931 26.1704992483830736 38.8499566724111389
 35.7914654820495883 28.9638842916594221 12.8849956672411139
 35.7914654820495883 28.9638842916594221 15.7699913344822278
 35.7914654820495883 28.9638842916594221 18.6549870017233417
 35.7914654820495883 28.9638842916594221 21.5399826689644556
 35.7914654820495883 28.9638842916594221 24.4249783362055695
 35.7914654820495883 28.9638842916594221 27.3099740034466834
 35.7914654820495883 28.9638842916594221 30.1949696706877972
 35.7914654820495883 28.9638842916594221 33.0799653379289111
 35.7914654820495883 28.9638842916594221 35.9649610051700250
 35.7914654820495883 28.9638842916594221 38.8499566724111389
 39.0752865468740040 32.5293419721642323 14.3274935008616708
 39.0752865468740040 32.5293419721642323 17.2124891681027847
 39.0752865468740040 32.5293419721642323 20.0974848353438986
 39.0752865468740040 32.5293419721642323 22.9824805025850125
 39.0752865468740040 32.5293419721642323 25.8674761698261264
 39.0752865468740040 32.5293419721642323 28.7524718370672403
 39.0752865468740040 32.5293419721642323 31.6374675043083542
 39.0752865468740040 32.5293419721642323 34.5224631715494681
 39.0752865468740040 32.5293419721642323 37.4074588387905820
 36.6990913017724836 34.2557488725746140 14.3274935008616708
 36.6990913017724836 34.2557488725746140 17.2124891681027847
 36.6990913017724836 34.2557488725746140 20.0974848353438986
 36.6990913017724836 34.2557488725746140 22.9824805025850125
 36.6990913017724836 34.2557488725746140 25.8674761698261264
 36.6990913017724836 34.2557488725746140 28.7524718370672403
 36.6990913017724836 34.2557488725746140 31.6374675043083542
 36.6990913017724836 34.2557488725746140 34.5224631715494681
 36.6990913017724836 34.2557488725746140 37.4074588387905820
 34.3228960566709560 35.9821557729849886 14.3274935008616708
 34.3228960566709560 35.9821557729849886 17.2124891681027847
 34.3228960566709560 35.9821557729849886 20.0974848353438986
 34.3228960566709560 35.9821557729849886 22.9824805025850125
 34.3228960566709560 35.9821557729849886 25.8674761698261264
 34.3228960566709560 35.9821557729849886 28.7524718370672403
 34.3228960566709560 35.9821557729849886 31.6374675043083542
 34.3228960566709560 35.9821557729849886 34.5224631715494681
 34.3228960566709560 35.9821557729849886 37.4074588387905820
 31.9467008115694355 37.7085626733953703 14.3274935008616708
 31.9467008115694355 37.7085626733953703 17.2124891681027847
 31.9467008115694355 37.7085626733953703 20.0974848353438986
 31.9467008115694355 37.7085626733953703 22.9824805025850125
 31.9467008115694355 37.7085626733953703 25.8674761698261264
 31.9467008115694355 37.7085626733953703 28.7524718370672403
 31.9467008115694355 37.7085626733953703 31.6374675043083542
 31.9467008115694355 37.7085626733953703 34.5224631715494681
 31.9467008115694355 37.7085626733953703 37.4074588387905820
 29.5705055664679151 35.9821557729849886 14.3274935008616708
 29.5705055664679151 35.9821557729849886 17.2124891681027847
 29.5705055664679151 35.9821557729849886 20.0974848353438986
 29.5705055664679151 35.9821557729849886 22.9824805025850125
 29.5705055664679151 35.9821557729849886 25.8674761698261264
 29.5705055664679151 35.9821557729849886 28.7524718370672403
 29.5705055664679151 35.9821557729849886 31.6374675043083542
 29.5705055664679151 35.9821557729849886 34.5224631715494681
 29.5705055664679151 35.9821557729849886 37.4074588387905820
 27.1943103213663910 34.2557488725746140 14.3274935008616708
 27.1943103213663910 34.2557488725746140 17.2124891681027847
 27.1943103213663910 34.2557488725746140 20.0974848353438986
 27.1943103213663910 34.2557488725746140 22.9824805025850125
 27.1943103213663910 34.2557488725746140 25.8674761698261264
 27.1943103213663910 34.2557488725746140 28.7524718370672403
 27.1943103213663910 34.2557488725746140 31.6374675043083542
 27.1943103213663910 34.2557488725746140 34.5224631715494681
 27.1943103213663910 34.2557488725746140 37.4074588387905820
 24.8181150762648670 32.5293419721642323 14.3274935008616708
 24.8181150762648670 32.5293419721642323 17.2124891681027847
 24.8181150762648670 32.5293419721642323 20.0974848353438986
 24.8181150762648670 32.5293419721642323 22.9824805025850125
 24.8181150762648670 32.5293419721642323 25.8674761698261264
 24.8181150762648670 32.5293419721642323 28.7524718370672403
 24.8181150762648670 32.5293419721642323 31.6374675043083542
 24.8181150762648670 32.5293419721642323 34.5224631715494681
 24.8181150762648670 32.5293419721642323 37.4074588387905820
 25.7257408959877623 29.7359569288878873 14.3274935008616708
 25.7257408959877623 29.7359569288878873 17.2124891681027847
 25.7257408959877623 29.7359569288878873 20.0974848353438986
 25.7257408959877623 29.7359569288878873 22.9824805025850125
 25.7257408959877623 29.7359569288878873 25.8674761698261264
 25.7257408959877623 29.7359569288878873 28.7524718370672403
 25.7257408959877623 29.7359569288878873 31.6374675043083542
 25.7257408959877623 29.7359569288878873 34.5224631715494681
 25.7257408959877623 29.7359569288878873 37.4074588387905820
 26.6333667157106575 26.9425718856115388 14.3274935008616708
 26.6333667157106575 26.9425718856115388 17.2124891681027847
 26.6333667157106575 26.9425718856115388 20.0974848353438986
 26.6333667157106575 26.9425718856115388 22.9824805025850125
 26.6333667157106575 26.9425718856115388 25.8674761698261264
 26.6333667157106575 26.9425718856115388 28.7524718370672403
 26.6333667157106575 26.9425718856115388 31.6374675043083542
 26.6333667157106575 26.9425718856115388 34.5224631715494681
 26.6333667157106575 26.9425718856115388 37.4074588387905820
 27.5409925354335527 24.1491868423351903 14.3274935008616708
 27.5409925354335527 24.1491868423351903 17.2124891681027847
 27.5409925354335527 24.1491868423351903 20.0974848353438986
 27.5409925354335527 24.1491868423351903 22.9824805025850125
 27.5409925354335527 24.1491868423351903 25.8674761698261264
 27.5409925354335527 24.1491868423351903 28.7524718370672403
 27.5409925354335527 24.1491868423351903 31.6374675043083542
 27.5409925354335527 24.1491868423351903 34.5224631715494681
 27.5409925354335527 24.1491868423351903 37.4074588387905820
 30.4781313861908068 24.1491868423351903 14.3274935008616708
 30.4781313861908068 24.1491868423351903 17.2124891681027847
 30.4781313861908068 24.1491868423351903 20.0974848353438986
 30.4781313861908068 24.1491868423351903 22.9824805025850125
 30.4781313861908068 24.1491868423351903 25.8674761698261264
 30.4781313861908068 24.1491868423351903 28.7524718370672403
 30.4781313861908068 24.1491868423351903 31.6374675043083542
 30.4781313861908068 24.1491868423351903 34.5224631715494681
 30.4781313861908068 24.1491868423351903 37.4074588387905820
 33.4152702369480608 24.1491868423351903 14.3274935008616708
 33.4152702369480608 24.1491868423351903 17.2124891681027847
 33.4152702369480608 24.1491868423351903 20.0974848353438986
 33.4152702369480608 24.1491868423351903 22.9824805025850125
 33.4152702369480608 24.1491868423351903 25.8674761698261264
 33.4152702369480608 24.1491868423351903 28.7524718370672403
 33.4152702369480608 24.1491868423351903 31.6374675043083542
 33.4152702369480608 24.1491868423351903 34.5224631715494681
 33.4152702369480608 24.1491868423351903 37.4074588387905820
 36.3524090877053183 24.1491868423351903 14.3274935008616708
 36.3524090877053183 24.1491868423351903 17.2124891681027847
 36.3524090877053183 24.1491868423351903 20.0974848353438986
 36.3524090877053183 24.1491868423351903 22.9824805025850125
 36.3524090877053183 24.1491868423351903 25.8674761698261264
 36.3524090877053183 24.1491868423351903 28.7524718370672403
 36.3524090877053183 24.1491868423351903 31.6374675043083542
 36.3524090877053183 24.1491868423351903 34.5224631715494681
 36.3524090877053183 24.1491868423351903 37.4074588387905820
 37.2600349074282136 26.9425718856115388 14.3274935008616708
 37.2600349074282136 26.9425718856115388 17.2124891681027847
 37.2600349074282136 26.9425718856115388 20.0974848353438986
 37.2600349074282136 26.9425718856115388 22.9824805025850125
 37.2600349074282136 26.9425718856115388 25.8674761698261264
 37.2600349074282136 26.9425718856115388 28.7524718370672403
 37.2600349074282136 26.9425718856115388 31.6374675043083542
 37.2600349074282136 26.9425718856115388 34.5224631715494681
 37.2600349074282136 26.9425718856115388 37.4074588387905820
 38.1676607271511088 29.7359569288878838 14.3274935008616708
 38.1676607271511088 29.7359569288878838 17.2124891681027847
 38.1676607271511088 29.7359569288878838 20.0974848353438986
 38.1676607271511088 29.7359569288878838 22.9824805025850125
 38.1676607271511088 29.7359569288878838 25.8674761698261264
 38.1676607271511088 29.7359569288878838 28.7524718370672403
 38.1676607271511088 29.7359569288878838 31.6374675043083542
 38.1676607271511088 29.7359569288878838 34.5224631715494681
 38.1676607271511088 29.7359569288878838 37.4074588387905820
 41.4514817919755245 33.3014146093926939 15.7699913344822278
 41.4514817919755245 33.3014146093926939 18.6549870017233417
 41.4514817919755245 33.3014146093926939 21.5399826689644556
 41.4514817919755245 33.3014146093926939 24.4249783362055695
 41.4514817919755245 33.3014146093926939 27.3099740034466834
 41.4514817919755245 33.3014146093926939 30.1949696706877972
 41.4514817919755245 33.3014146093926939 33.0799653379289111
 41.4514817919755245 33.3014146093926939 35.9649610051700250
 39.0752865468740040 35.0278215098030756 15.7699913344822278
 39.0752865468740040 35.0278215098030756 18.6549870017233417
 39.0752865468740040 35.0278215098030756 21.5399826689644556
 39.0752865468740040 35.0278215098030756 24.4249783362055695
 39.0752865468740040 35.0278215098030756 27.3099740034466834
 39.0752865468740040 35.0278215098030756 30.1949696706877972
 39.0752865468740040 35.0278215098030756 33.0799653379289111
 39.0752865468740040 35.0278215098030756 35.9649610051700250
 36.6990913017724836 36.7542284102134502 15.7699913344822278
 36.6990913017724836 36.7542284102134502 18.6549870017233417
 36.6990913017724836 36.7542284102134502 21.5399826689644556
 36.6990913017724836 36.7542284102134502 24.4249783362055695
 36.6990913017724836 36.7542284102134502 27.3099740034466834
 36.6990913017724836 36.7542284102134502 30.1949696706877972
 36.6990913017724836 36.7542284102134502 33.0799653379289111
 36.6990913017724836 36.7542284102134502 35.9649610051700250
 34.3228960566709560 38.4806353106238319 15.7699913344822278
 34.3228960566709560 38.4806353106238319 18.6549870017233417
 34.3228960566709560 38.4806353106238319 21.5399826689644556
 34.3228960566709560 38.4806353106238319 24.4249783362055695
 34.3228960566709560 38.4806353106238319 27.3099740034466834
 34.3228960566709560 38.4806353106238319 30.1949696706877972
 34.3228960566709560 38.4806353106238319 33.0799653379289111
 34.3228960566709560 38.4806353106238319 35.9649610051700250
 31.9467008115694355 40.2070422110342065 15.7699913344822278
 31.9467008115694355 40.2070422110342065 18.6549870017233417
 31.9467008115694355 40.2070422110342065 21.5399826689644556
 31.9467008115694355 40.2070422110342065 24.4249783362055695
 31.9467008115694355 40.2070422110342065 27.3099740034466834
 31.9467008115694355 40.2070422110342065 30.1949696706877972
 31.9467008115694355 40.2070422110342065 33.0799653379289111
 31.9467008115694355 40.2070422110342065 35.9649610051700250
 29.5705055664679151 38.4806353106238319 15.7699913344822278
 29.5705055664679151 38.4806353106238319 18.6549870017233417
 29.5705055664679151 38.4806353106238319 21.5399826689644556
 29.5705055664679151 38.4806353106238319 24.4249783362055695
 29.5705055664679151 38.4806353106238319 27.3099740034466834
 29.5705055664679151 38.4806353106238319 30.1949696706877972
 29.5705055664679151 38.4806353106238319 33.0799653379289111
 29.5705055664679151 38.4806353106238319 35.9649610051700250
 27.1943103213663910 36.7542284102134573 15.7699913344822278
 27.1943103213663910 36.7542284102134573 18.6549870017233417
 27.1943103213663910 36.7542284102134573 21.5399826689644556
 27.1943103213663910 36.7542284102134573 24.4249783362055695
 27.1943103213663910 36.7542284102134573 27.3099740034466834
 27.1943103213663910 36.7542284102134573 30.1949696706877972
 27.1943103213663910 36.7542284102134573 33.0799653379289111
 27.1943103213663910 36.7542284102134573 35.9649610051700250
 24.8181150762648670 35.0278215098030756 15.7699913344822278
 24.8181150762648670 35.0278215098030756 18.6549870017233417
 24.8181150762648670 35.0278215098030756 21.5399826689644556
 24.8181150762648670 35.0278215098030756 24.4249783362055695
 24.8181150762648670 35.0278215098030756 27.3099740034466834
 24.8181150762648670 35.0278215098030756 30.1949696706877972
 24.8181150762648670 35.0278215098030756 33.0799653379289111
 24.8181150762648670 35.0278215098030756 35.9649610051700250
 22.4419198311633465 33.3014146093926939 15.7699913344822278
 22.4419198311633465 33.3014146093926939 18.6549870017233417
 22.4419198311633465 33.3014146093926939 21.5399826689644556
 22.4419198311633465 33.3014146093926939 24.4249783362055695
 22.4419198311633465 33.3014146093926939 27.3099740034466834
 22.4419198311633465 33.3014146093926939 30.1949696706877972
 22.4419198311633465 33.3014146093926939 33.0799653379289111
 22.4419198311633465 33.3014146093926939 35.9649610051700250
 23.3495456508862382 30.5080295661163490 15.7699913344822278
 23.3495456508862382 30.5080295661163490 18.6549870017233417
 23.3495456508862382 30.5080295661163490 21.5399826689644556
 23.3495456508862382 30.5080295661163490 24.4249783362055695
 23.3495456508862382 30.5080295661163490 27.3099740034466834
 23.3495456508862382 30.5080295661163490 30.1949696706877972
 23.3495456508862382 30.5080295661163490 33.0799653379289111
 23.3495456508862382 30.5080295661163490 35.9649610051700250
 24.2571714706091335 27.7146445228400040 15.7699913344822278
 24.2571714706091335 27.7146445228400040 18.6549870017233417
 24.2571714706091335 27.7146445228400040 21.5399826689644556
 24.2571714706091335 27.7146445228400040 24.4249783362055695
 24.2571714706091335 27.7146445228400040 27.3099740034466834
 24.2571714706091335 27.7146445228400040 30.1949696706877972
 24.2571714706091335 27.7146445228400040 33.0799653379289111
 24.2571714706091335 27.7146445228400040 35.9649610051700250
 25.1647972903320287 24.9212594795636555 15.7699913344822278
 25.1647972903320287 24.9212594795636555 18.6549870017233417
 25.1647972903320287 24.9212594795636555 21.5399826689644556
 25.1647972903320287 24.9212594795636555 24.4249783362055695
 25.1647972903320287 24.9212594795636555 27.3099740034466834
 25.1647972903320287 24.9212594795636555 30.1949696706877972
 25.1647972903320287 24.9212594795636555 33.0799653379289111
 25.1647972903320287 24.9212594795636555 35.9649610051700250
 26.0724231100549204 22.1278744362873070 15.7699913344822278
 26.0724231100549204 22.1278744362873070 18.6549870017233417
 26.0724231100549204 22.1278744362873070 21.5399826689644556
 26.0724231100549204 22.1278744362873070 24.4249783362055695
 26.0724231100549204 22.1278744362873070 27.3099740034466834
 26.0724231100549204 22.1278744362873070 30.1949696706877972
 26.0724231100549204 22.1278744362873070 33.0799653379289111
 26.0724231100549204 22.1278744362873070 35.9649610051700250
 29.0095619608121780 22.1278744362873070 15.7699913344822278
 29.0095619608121780 22.1278744362873070 18.6549870017233417
 29.0095619608121780 22.1278744362873070 21.5399826689644556
 29.0095619608121780 22.1278744362873070 24.4249783362055695
 29.0095619608121780 22.1278744362873070 27.3099740034466834
 29.0095619608121780 22.1278744362873070 30.1949696706877972
 29.0095619608121780 22.1278744362873070 33.0799653379289111
 29.0095619608121780 22.1278744362873070 35.9649610051700250
 31.9467008115694355 22.1278744362873070 15.7699913344822278
 31.9467008115694355 22.1278744362873070 18.6549870017233417
 31.9467008115694355 22.1278744362873070 21.5399826689644556
 31.9467008115694355 22.1278744362873070 24.4249783362055695
 31.9467008115694355 22.1278744362873070 27.3099740034466834
 31.9467008115694355 22.1278744362873070 30.1949696706877972
 31.9467008115694355 22.1278744362873070 33.0799653379289111
 31.9467008115694355 22.1278744362873070 35.9649610051700250
 34.8838396623266931 22.1278744362873070 15.7699913344822278
 34.8838396623266931 22.1278744362873070 18.6549870017233417
 34.8838396623266931 22.1278744362873070 21.5399826689644556
 34.8838396623266931 22.1278744362873070 24.4249783362055695
 34.8838396623266931 22.1278744362873070 27.3099740034466834
 34.8838396623266931 22.1278744362873070 30.1949696706877972
 34.8838396623266931 22.1278744362873070 33.0799653379289111
 34.8838396623266931 22.1278744362873070 35.9649610051700250
 37.8209785130839435 22.1278744362873070 15.7699913344822278
 37.8209785130839435 22.1278744362873070 18.6549870017233417
 37.8209785130839435 22.1278744362873070 21.5399826689644556
 37.8209785130839435 22.1278744362873070 24.4249783362055695
 37.8209785130839435 22.1278744362873070 27.3099740034466834
 37.8209785130839435 22.1278744362873070 30.1949696706877972
 37.8209785130839435 22.1278744362873070 33.0799653379289111
 37.8209785130839435 22.1278744362873070 35.9649610051700250
 38.7286043328068388 24.9212594795636520 15.7699913344822278
 38.7286043328068388 24.9212594795636520 18.6549870017233417
 38.7286043328068388 24.9212594795636520 21.5399826689644556
 38.7286043328068388 24.9212594795636520 24.4249783362055695
 38.7286043328068388 24.9212594795636520 27.3099740034466834
 38.7286043328068388 24.9212594795636520 30.1949696706877972
 38.7286043328068388 24.9212594795636520 33.0799653379289111
 38.7286043328068388 24.9212594795636520 35.9649610051700250
 39.6362301525297340 27.7146445228400005 15.7699913344822278
 39.6362301525297340 27.7146445228400005 18.6549870017233417
 39.6362301525297340 27.7146445228400005 21.5399826689644556
 39.6362301525297340 27.7146445228400005 24.4249783362055695
 39.6362301525297340 27.7146445228400005 27.3099740034466834
 39.6362301525297340 27.7146445228400005 30.1949696706877972
 39.6362301525297340 27.7146445228400005 33.0799653379289111
 39.6362301525297340 27.7146445228400005 35.9649610051700250
 40.5438559722526293 30.5080295661163490 15.7699913344822278
 40.5438559722526293 30.5080295661163490 18.6549870017233417
 40.5438559722526293 30.5080295661163490 21.5399826689644556
 40.5438559722526293 30.5080295661163490 24.4249783362055695
 40.5438559722526293 30.5080295661163490 27.3099740034466834
 40.5438559722526293 30.5080295661163490 30.1949696706877972
 40.5438559722526293 30.5080295661163490 33.0799653379289111
 40.5438559722526293 30.5080295661163490 35.9649610051700250
 43.8276770370770521 34.0734872466211556 17.2124891681027847
 43.8276770370770521 34.0734872466211556 20.0974848353438986
 43.8276770370770521 34.0734872466211556 22.9824805025850125
 43.8276770370770521 34.0734872466211556 25.8674761698261264
 43.8276770370770521 34.0734872466211556 28.7524718370672403
 43.8276770370770521 34.0734872466211556 31.6374675043083542
 43.8276770370770521 34.0734872466211556 34.5224631715494681
 41.4514817919755245 35.7998941470315373 17.2124891681027847
 41.4514817919755245 35.7998941470315373 20.0974848353438986
 41.4514817919755245 35.7998941470315373 22.9824805025850125
 41.4514817919755245 35.7998941470315373 25.8674761698261264
 41.4514817919755245 35.7998941470315373 28.7524718370672403
 41.4514817919755245 35.7998941470315373 31.6374675043083542
 41.4514817919755245 35.7998941470315373 34.5224631715494681
 39.0752865468740040 37.5263010474419119 17.2124891681027847
 39.0752865468740040 37.5263010474419119 20.0974848353438986
 39.0752865468740040 37.5263010474419119 22.9824805025850125
 39.0752865468740040 37.5263010474419119 25.8674761698261264
 39.0752865468740040 37.5263010474419119 28.7524718370672403
 39.0752865468740040 37.5263010474419119 31.6374675043083542
 39.0752865468740040 37.5263010474419119 34.5224631715494681
 36.6990913017724836 39.2527079478522936 17.2124891681027847
 36.6990913017724836 39.2527079478522936 20.0974848353438986
 36.6990913017724836 39.2527079478522936 22.9824805025850125
 36.6990913017724836 39.2527079478522936 25.8674761698261264