Au 
 1.0000000000000000
    51.4514817919755316    0.0000000000000000    0.0000000000000000
     0.0000000000000000   49.9121367053967049    0.0000000000000000
     0.0000000000000000    0.0000000000000000   54.6199480068933667
 Au 
 1103
Cartesian
 25.7257408959877694 24.1491868423351903 10.0000000000000000
 25.7257408959877694 24.1491868423351903 12.8849956672411139
 25.7257408959877694 24.1491868423351903 15.7699913344822278
 25.7257408959877694 24.1491868423351903 18.6549870017233417
 25.7257408959877694 24.1491868423351903 21.5399826689644556
 25.7257408959877694 24.1491868423351903 24.4249783362055695
 25.7257408959877694 24.1491868423351903 27.3099740034466834
 25.7257408959877694 24.1491868423351903 30.1949696706877972
 25.7257408959877694 24.1491868423351903 33.0799653379289111
 25.7257408959877694 24.1491868423351903 35.9649610051700250
 25.7257408959877694 24.1491868423351903 38.8499566724111389
 25.7257408959877694 24.1491868423351903 41.7349523396522528
 25.7257408959877694 24.1491868423351903 44.6199480068933667
 28.1019361410892934 24.9212594795636520 11.4424978336205569
 28.1019361410892934 24.9212594795636520 14.3274935008616708
 28.1019361410892934 24.9212594795636520 17.2124891681027847
 28.1019361410892934 24.9212594795636520 20.0974848353438986
 28.1019361410892934 24.9212594795636520 22.9824805025850125
 28.1019361410892934 24.9212594795636520 25.8674761698261264
 28.1019361410892934 24.9212594795636520 28.7524718370672403
 28.1019361410892934 24.9212594795636520 31.6374675043083542
 28.1019361410892934 24.9212594795636520 34.5224631715494681
 28.1019361410892934 24.9212594795636520 37.4074588387905820
 28.1019361410892934 24.9212594795636520 40.2924545060316959
 28.1019361410892934 24.9212594795636520 43.1774501732728098
 25.7257408959877694 26.6476663799740336 11.4424978336205569
 25.7257408959877694 26.6476663799740336 14.3274935008616708
 25.7257408959877694 26.6476663799740336 17.2124891681027847
 25.7257408959877694 26.6476663799740336 20.0974848353438986
 25.7257408959877694 26.6476663799740336 22.9824805025850125
 25.7257408959877694 26.6476663799740336 25.8674761698261264
 25.7257408959877694 26.6476663799740336 28.7524718370672403
 25.7257408959877694 26.6476663799740336 31.6374675043083542
 25.7257408959877694 26.6476663799740336 34.5224631715494681
 25.7257408959877694 26.6476663799740336 37.4074588387905820
 25.7257408959877694 26.6476663799740336 40.2924545060316959
 25.7257408959877694 26.6476663799740336 43.1774501732728098
 23.3495456508862453 24.9212594795636520 11.4424978336205569
 23.3495456508862453 24.9212594795636520 14.3274935008616708
 23.3495456508862453 24.9212594795636520 17.2124891681027847
 23.3495456508862453 24.9212594795636520 20.0974848353438986
 23.3495456508862453 24.9212594795636520 22.9824805025850125
 23.3495456508862453 24.9212594795636520 25.8674761698261264
 23.3495456508862453 24.9212594795636520 28.7524718370672403
 23.3495456508862453 24.9212594795636520 31.6374675043083542
 23.3495456508862453 24.9212594795636520 34.5224631715494681
 23.3495456508862453 24.9212594795636520 37.4074588387905820
 23.3495456508862453 24.9212594795636520 40.2924545060316959
 23.3495456508862453 24.9212594795636520 43.1774501732728098
 24.2571714706091406 22.1278744362873070 11.4424978336205569
 24.2571714706091406 22.1278744362873070 14.3274935008616708
 24.2571714706091406 22.1278744362873070 17.2124891681027847
 24.2571714706091406 22.1278744362873070 20.0974848353438986
 24.2571714706091406 22.1278744362873070 22.9824805025850125
 24.2571714706091406 22.1278744362873070 25.8674761698261264
 24.2571714706091406 22.1278744362873070 28.7524718370672403
 24.2571714706091406 22.1278744362873070 31.6374675043083542
 24.2571714706091406 22.1278744362873070 34.5224631715494681
 24.2571714706091406 22.1278744362873070 37.4074588387905820
 24.2571714706091406 22.1278744362873070 40.2924545060316959
 24.2571714706091406 22.1278744362873070 43.1774501732728098
 27.1943103213663981 22.1278744362873070 11.4424978336205569
 27.1943103213663981 22.1278744362873070 14.3274935008616708
 27.1943103213663981 22.1278744362873070 17.2124891681027847
 27.1943103213663981 22.1278744362873070 20.0974848353438986
 27.1943103213663981 22.1278744362873070 22.9824805025850125
 27.1943103213663981 22.1278744362873070 25.8674761698261264
 27.1943103213663981 22.1278744362873070 28.7524718370672403
 27.1943103213663981 22.1278744362873070 31.6374675043083542
 27.1943103213663981 22.1278744362873070 34.5224631715494681
 27.1943103213663981 22.1278744362873070 37.4074588387905820
 27.1943103213663981 22.1278744362873070 40.2924545060316959
 27.1943103213663981 22.1278744362873070 43.1774501732728098
 30.4781313861908139 25.6933321167921136 12.8849956672411139
 30.4781313861908139 25.6933321167921136 15.7699913344822278
 30.4781313861908139 25.6933321167921136 18.6549870017233417
 30.4781313861908139 25.6933321167921136 21.5399826689644556
 30.4781313861908139 25.6933321167921136 24.4249783362055695
 30.4781313861908139 25.6933321167921136 27.3099740034466834
 30.4781313861908139 25.6933321167921136 30.1949696706877972
 30.4781313861908139 25.6933321167921136 33.0799653379289111
 30.4781313861908139 25.6933321167921136 35.9649610051700250
 30.4781313861908139 25.6933321167921136 38.8499566724111389
 30.4781313861908139 25.6933321167921136 41.7349523396522528
 28.1019361410892934 27.4197390172024953 12.8849956672411139
 28.1019361410892934 27.4197390172024953 15.7699913344822278
 28.1019361410892934 27.4197390172024953 18.6549870017233417
 28.1019361410892934 27.4197390172024953 21.5399826689644556
 28.1019361410892934 27.4197390172024953 24.4249783362055695
 28.1019361410892934 27.4197390172024953 27.3099740034466834
 28.1019361410892934 27.4197390172024953 30.1949696706877972
 28.1019361410892934 27.4197390172024953 33.0799653379289111
 28.1019361410892934 27.4197390172024953 35.9649610051700250
 28.1019361410892934 27.4197390172024953 38.8499566724111389
 28.1019361410892934 27.4197390172024953 41.7349523396522528
 25.7257408959877694 29.1461459176128734 12.8849956672411139
 25.7257408959877694 29.1461459176128734 15.7699913344822278
 25.7257408959877694 29.1461459176128734 18.6549870017233417
 25.7257408959877694 29.1461459176128734 21.5399826689644556
 25.7257408959877694 29.1461459176128734 24.4249783362055695
 25.7257408959877694 29.1461459176128734 27.3099740034466834
 25.7257408959877694 29.1461459176128734 30.1949696706877972
 25.7257408959877694 29.1461459176128734 33.0799653379289111
 25.7257408959877694 29.1461459176128734 35.9649610051700250
 25.7257408959877694 29.1461459176128734 38.8499566724111389
 25.7257408959877694 29.1461459176128734 41.7349523396522528
 23.3495456508862453 27.4197390172024953 12.8849956672411139
 23.3495456508862453 27.4197390172024953 15.7699913344822278
 23.3495456508862453 27.4197390172024953 18.6549870017233417
 23.3495456508862453 27.4197390172024953 21.5399826689644556
 23.3495456508862453 27.4197390172024953 24.4249783362055695
 23.3495456508862453 27.4197390172024953 27.3099740034466834
 23.3495456508862453 27.4197390172024953 30.1949696706877972
 23.3495456508862453 27.4197390172024953 33.0799653379289111
 23.3495456508862453 27.4197390172024953 35.9649610051700250
 23.3495456508862453 27.4197390172024953 38.8499566724111389
 23.3495456508862453 27.4197390172024953 41.7349523396522528
 20.9733504057847249 25.6933321167921171 12.8849956672411139
 20.9733504057847249 25.6933321167921171 15.7699913344822278
 20.9733504057847249 25.6933321167921171 18.6549870017233417
 20.9733504057847249 25.6933321167921171 21.5399826689644556
 20.9733504057847249 25.6933321167921171 24.4249783362055695
 20.9733504057847249 25.6933321167921171 27.3099740034466834
 20.9733504057847249 25.6933321167921171 30.1949696706877972
 20.9733504057847249 25.6933321167921171 33.0799653379289111
 20.9733504057847249 25.6933321167921171 35.9649610051700250
 20.9733504057847249 25.6933321167921171 38.8499566724111389
 20.9733504057847249 25.6933321167921171 41.7349523396522528
 21.8809762255076166 22.8999470735157686 12.8849956672411139
 21.8809762255076166 22.8999470735157686 15.7699913344822278
 21.8809762255076166 22.8999470735157686 18.6549870017233417
 21.8809762255076166 22.8999470735157686 21.5399826689644556
 21.8809762255076166 22.8999470735157686 24.4249783362055695
 21.8809762255076166 22.8999470735157686 27.3099740034466834
 21.8809762255076166 22.8999470735157686 30.1949696706877972
 21.8809762255076166 22.8999470735157686 33.0799653379289111
 21.8809762255076166 22.8999470735157686 35.9649610051700250
 21.8809762255076166 22.8999470735157686 38.8499566724111389
 21.8809762255076166 22.8999470735157686 41.7349523396522528
 22.7886020452305118 20.1065620302394237 12.8849956672411139
 22.7886020452305118 20.1065620302394237 15.7699913344822278
 22.7886020452305118 20.1065620302394237 18.6549870017233417
 22.7886020452305118 20.1065620302394237 21.5399826689644556
 22.7886020452305118 20.1065620302394237 24.4249783362055695
 22.7886020452305118 20.1065620302394237 27.3099740034466834
 22.7886020452305118 20.1065620302394237 30.1949696706877972
 22.7886020452305118 20.1065620302394237 33.0799653379289111
 22.7886020452305118 20.1065620302394237 35.9649610051700250
 22.7886020452305118 20.1065620302394237 38.8499566724111389
 22.7886020452305118 20.1065620302394237 41.7349523396522528
 25.7257408959877694 20.1065620302394237 12.8849956672411139
 25.7257408959877694 20.1065620302394237 15.7699913344822278
 25.7257408959877694 20.1065620302394237 18.6549870017233417
 25.7257408959877694 20.1065620302394237 21.5399826689644556
 25.7257408959877694 20.1065620302394237 24.4249783362055695
 25.7257408959877694 20.1065620302394237 27.3099740034466834
 25.7257408959877694 20.1065620302394237 30.1949696706877972
 25.7257408959877694 20.1065620302394237 33.0799653379289111
 25.7257408959877694 20.1065620302394237 35.9649610051700250
 25.7257408959877694 20.1065620302394237 38.8499566724111389
 25.7257408959877694 20.1065620302394237 41.7349523396522528
 28.6628797467450234 20.1065620302394237 12.8849956672411139
 28.6628797467450234 20.1065620302394237 15.7699913344822278
 28.6628797467450234 20.1065620302394237 18.6549870017233417
 28.6628797467450234 20.1065620302394237 21.5399826689644556
 28.6628797467450234 20.1065620302394237 24.4249783362055695
 28.6628797467450234 20.1065620302394237 27.3099740034466834
 28.6628797467450234 20.1065620302394237 30.1949696706877972
 28.6628797467450234 20.1065620302394237 33.0799653379289111
 28.6628797467450234 20.1065620302394237 35.9649610051700250
 28.6628797467450234 20.1065620302394237 38.8499566724111389
 28.6628797467450234 20.1065620302394237 41.7349523396522528
 29.5705055664679186 22.8999470735157686 12.8849956672411139
 29.5705055664679186 22.8999470735157686 15.7699913344822278
 29.5705055664679186 22.8999470735157686 18.6549870017233417
 29.5705055664679186 22.8999470735157686 21.5399826689644556
 29.5705055664679186 22.8999470735157686 24.4249783362055695
 29.5705055664679186 22.8999470735157686 27.3099740034466834
 29.5705055664679186 22.8999470735157686 30.1949696706877972
 29.5705055664679186 22.8999470735157686 33.0799653379289111
 29.5705055664679186 22.8999470735157686 35.9649610051700250
 29.5705055664679186 22.8999470735157686 38.8499566724111389
 29.5705055664679186 22.8999470735157686 41.7349523396522528
 32.8543266312923379 26.4654047540205788 14.3274935008616708
 32.8543266312923379 26.4654047540205788 17.2124891681027847
 32.8543266312923379 26.4654047540205788 20.0974848353438986
 32.8543266312923379 26.4654047540205788 22.9824805025850125
 32.8543266312923379 26.4654047540205788 25.8674761698261264
 32.8543266312923379 26.4654047540205788 28.7524718370672403
 32.8543266312923379 26.4654047540205788 31.6374675043083542
 32.8543266312923379 26.4654047540205788 34.5224631715494681
 32.8543266312923379 26.4654047540205788 37.4074588387905820
 32.8543266312923379 26.4654047540205788 40.2924545060316959
 30.4781313861908139 28.1918116544309569 14.3274935008616708
 30.4781313861908139 28.1918116544309569 17.2124891681027847
 30.4781313861908139 28.1918116544309569 20.0974848353438986
 30.4781313861908139 28.1918116544309569 22.9824805025850125
 30.4781313861908139 28.1918116544309569 25.8674761698261264
 30.4781313861908139 28.1918116544309569 28.7524718370672403
 30.4781313861908139 28.1918116544309569 31.6374675043083542
 30.4781313861908139 28.1918116544309569 34.5224631715494681
 30.4781313861908139 28.1918116544309569 37.4074588387905820
 30.4781313861908139 28.1918116544309569 40.2924545060316959
 28.1019361410892934 29.9182185548413351 14.3274935008616708
 28.1019361410892934 29.9182185548413351 17.2124891681027847
 28.1019361410892934 29.9182185548413351 20.0974848353438986
 28.1019361410892934 29.9182185548413351 22.9824805025850125
 28.1019361410892934 29.9182185548413351 25.8674761698261264
 28.1019361410892934 29.9182185548413351 28.7524718370672403
 28.1019361410892934 29.9182185548413351 31.6374675043083542
 28.1019361410892934 29.9182185548413351 34.5224631715494681
 28.1019361410892934 29.9182185548413351 37.4074588387905820
 28.1019361410892934 29.9182185548413351 40.2924545060316959
 25.7257408959877694 31.6446254552517132 14.3274935008616708
 25.7257408959877694 31.6446254552517132 17.2124891681027847
 25.7257408959877694 31.6446254552517132 20.0974848353438986
 25.7257408959877694 31.6446254552517132 22.9824805025850125
 25.7257408959877694 31.6446254552517132 25.8674761698261264
 25.7257408959877694 31.6446254552517132 28.7524718370672403
 25.7257408959877694 31.6446254552517132 31.6374675043083542
 25.7257408959877694 31.6446254552517132 34.5224631715494681
 25.7257408959877694 31.6446254552517132 37.4074588387905820
 25.7257408959877694 31.6446254552517132 40.2924545060316959
 23.3495456508862489 29.9182185548413386 14.3274935008616708
 23.3495456508862489 29.9182185548413386 17.2124891681027847
 23.3495456508862489 29.9182185548413386 20.0974848353438986
 23.3495456508862489 29.9182185548413386 22.9824805025850125
 23.3495456508862489 29.9182185548413386 25.8674761698261264
 23.3495456508862489 29.9182185548413386 28.7524718370672403
 23.3495456508862489 29.9182185548413386 31.6374675043083542
 23.3495456508862489 29.9182185548413386 34.5224631715494681
 23.3495456508862489 29.9182185548413386 37.4074588387905820
 23.3495456508862489 29.9182185548413386 40.2924545060316959
 20.9733504057847249 28.1918116544309569 14.3274935008616708
 20.9733504057847249 28.1918116544309569 17.2124891681027847
 20.9733504057847249 28.1918116544309569 20.0974848353438986
 20.9733504057847249 28.1918116544309569 22.9824805025850125
 20.9733504057847249 28.1918116544309569 25.8674761698261264
 20.9733504057847249 28.1918116544309569 28.7524718370672403
 20.9733504057847249 28.1918116544309569 31.6374675043083542
 20.9733504057847249 28.1918116544309569 34.5224631715494681
 20.9733504057847249 28.1918116544309569 37.4074588387905820
 20.9733504057847249 28.1918116544309569 40.2924545060316959
 18.5971551606832008 26.4654047540205788 14.3274935008616708
 18.5971551606832008 26.4654047540205788 17.2124891681027847
 18.5971551606832008 26.4654047540205788 20.0974848353438986
 18.5971551606832008 26.4654047540205788 22.9824805025850125
 18.5971551606832008 26.4654047540205788 25.8674761698261264
 18.5971551606832008 26.4654047540205788 28.7524718370672403
 18.5971551606832008 26.4654047540205788 31.6374675043083542
 18.5971551606832008 26.4654047540205788 34.5224631715494681
 18.5971551606832008 26.4654047540205788 37.4074588387905820
 18.5971551606832008 26.4654047540205788 40.2924545060316959
 19.5047809804060961 23.6720197107442338 14.3274935008616708
 19.5047809804060961 23.6720197107442338 17.2124891681027847
 19.5047809804060961 23.6720197107442338 20.0974848353438986
 19.5047809804060961 23.6720197107442338 22.9824805025850125
 19.5047809804060961 23.6720197107442338 25.8674761698261264
 19.5047809804060961 23.6720197107442338 28.7524718370672403
 19.5047809804060961 23.6720197107442338 31.6374675043083542
 19.5047809804060961 23.6720197107442338 34.5224631715494681
 19.5047809804060961 23.6720197107442338 37.4074588387905820
 19.5047809804060961 23.6720197107442338 40.2924545060316959
 20.4124068001289913 20.8786346674678853 14.3274935008616708
 20.4124068001289913 20.8786346674678853 17.2124891681027847
 20.4124068001289913 20.8786346674678853 20.0974848353438986
 20.4124068001289913 20.8786346674678853 22.9824805025850125
 20.4124068001289913 20.8786346674678853 25.8674761698261264
 20.4124068001289913 20.8786346674678853 28.7524718370672403
 20.4124068001289913 20.8786346674678853 31.6374675043083542
 20.4124068001289913 20.8786346674678853 34.5224631715494681
 20.4124068001289913 20.8786346674678853 37.4074588387905820
 20.4124068001289913 20.8786346674678853 40.2924545060316959
 21.3200326198518866 18.0852496241915404 14.3274935008616708
 21.3200326198518866 18.0852496241915404 17.2124891681027847
 21.3200326198518866 18.0852496241915404 20.0974848353438986
 21.3200326198518866 18.0852496241915404 22.9824805025850125
 21.3200326198518866 18.0852496241915404 25.8674761698261264
 21.3200326198518866 18.0852496241915404 28.7524718370672403
 21.3200326198518866 18.0852496241915404 31.6374675043083542
 21.3200326198518866 18.0852496241915404 34.5224631715494681
 21.3200326198518866 18.0852496241915404 37.4074588387905820
 21.3200326198518866 18.0852496241915404 40.2924545060316959
 24.2571714706091406 18.0852496241915404 14.3274935008616708
 24.2571714706091406 18.0852496241915404 17.2124891681027847
 24.2571714706091406 18.0852496241915404 20.0974848353438986
 24.2571714706091406 18.0852496241915404 22.9824805025850125
 24.2571714706091406 18.0852496241915404 25.8674761698261264
 24.2571714706091406 18.0852496241915404 28.7524718370672403
 24.2571714706091406 18.0852496241915404 31.6374675043083542
 24.2571714706091406 18.0852496241915404 34.5224631715494681
 24.2571714706091406 18.0852496241915404 37.4074588387905820
 24.2571714706091406 18.0852496241915404 40.2924545060316959
 27.1943103213663946 18.0852496241915404 14.3274935008616708
 27.1943103213663946 18.0852496241915404 17.2124891681027847
 27.1943103213663946 18.0852496241915404 20.0974848353438986
 27.1943103213663946 18.0852496241915404 22.9824805025850125
 27.1943103213663946 18.0852496241915404 25.8674761698261264
 27.1943103213663946 18.0852496241915404 28.7524718370672403
 27.1943103213663946 18.0852496241915404 31.6374675043083542
 27.1943103213663946 18.0852496241915404 34.5224631715494681
 27.1943103213663946 18.0852496241915404 37.4074588387905820
 27.1943103213663946 18.0852496241915404 40.2924545060316959
 30.1314491721236521 18.0852496241915368 14.3274935008616708
 30.1314491721236521 18.0852496241915368 17.2124891681027847
 30.1314491721236521 18.0852496241915368 20.0974848353438986
 30.1314491721236521 18.0852496241915368 22.9824805025850125
 30.1314491721236521 18.0852496241915368 25.8674761698261264
 30.1314491721236521 18.0852496241915368 28.7524718370672403
 30.1314491721236521 18.0852496241915368 31.6374675043083542
 30.1314491721236521 18.0852496241915368 34.5224631715494681
 30.1314491721236521 18.0852496241915368 37.4074588387905820
 30.1314491721236521 18.0852496241915368 40.2924545060316959
 31.0390749918465474 20.8786346674678853 14.3274935008616708
 31.0390749918465474 20.8786346674678853 17.2124891681027847
 31.0390749918465474 20.8786346674678853 20.0974848353438986
 31.0390749918465474 20.8786346674678853 22.9824805025850125
 31.0390749918465474 20.8786346674678853 25.8674761698261264
 31.0390749918465474 20.8786346674678853 28.7524718370672403
 31.0390749918465474 20.8786346674678853 31.6374675043083542
 31.0390749918465474 20.8786346674678853 34.5224631715494681
 31.0390749918465474 20.8786346674678853 37.4074588387905820
 31.0390749918465474 20.8786346674678853 40.2924545060316959
 31.9467008115694426 23.6720197107442303 14.3274935008616708
 31.9467008115694426 23.6720197107442303 17.2124891681027847
 31.9467008115694426 23.6720197107442303 20.0974848353438986
 31.9467008115694426 23.6720197107442303 22.9824805025850125
 31.9467008115694426 23.6720197107442303 25.8674761698261264
 31.9467008115694426 23.6720197107442303 28.7524718370672403
 31.9467008115694426 23.6720197107442303 31.6374675043083542
 31.9467008115694426 23.6720197107442303 34.5224631715494681
 31.9467008115694426 23.6720197107442303 37.4074588387905820
 31.9467008115694426 23.6720197107442303 40.2924545060316959
 35.2305218763938583 27.2374773912490404 15.7699913344822278
 35.2305218763938583 27.2374773912490404 18.6549870017233417
 35.2305218763938583 27.2374773912490404 21.5399826689644556
 35.2305218763938583 27.2374773912490404 24.4249783362055695
 35.2305218763938583 27.2374773912490404 27.3099740034466834
 35.2305218763938583 27.2374773912490404 30.1949696706877972
 35.2305218763938583 27.2374773912490404 33.0799653379289111
 35.2305218763938583 27.2374773912490404 35.9649610051700250
 35.2305218763938583 27.2374773912490404 38.8499566724111389
 32.8543266312923379 28.9638842916594186 15.7699913344822278
 32.8543266312923379 28.9638842916594186 18.6549870017233417
 32.8543266312923379 28.9638842916594186 21.5399826689644556
 32.8543266312923379 28.9638842916594186 24.4249783362055695
 32.8543266312923379 28.9638842916594186 27.3099740034466834
 32.8543266312923379 28.9638842916594186 30.1949696706877972
 32.8543266312923379 28.9638842916594186 33.0799653379289111
 32.8543266312923379 28.9638842916594186 35.9649610051700250
 32.8543266312923379 28.9638842916594186 38.8499566724111389
 30.4781313861908139 30.6902911920698003 15.7699913344822278
 30.4781313861908139 30.6902911920698003 18.6549870017233417
 30.4781313861908139 30.6902911920698003 21.5399826689644556
 30.4781313861908139 30.6902911920698003 24.4249783362055695
 30.4781313861908139 30.6902911920698003 27.3099740034466834
 30.4781313861908139 30.6902911920698003 30.1949696706877972
 30.4781313861908139 30.6902911920698003 33.0799653379289111
 30.4781313861908139 30.6902911920698003 35.9649610051700250
 30.4781313861908139 30.6902911920698003 38.8499566724111389
 28.1019361410892934 32.4166980924801749 15.7699913344822278
 28.1019361410892934 32.4166980924801749 18.6549870017233417
 28.1019361410892934 32.4166980924801749 21.5399826689644556
 28.1019361410892934 32.4166980924801749 24.4249783362055695
 28.1019361410892934 32.4166980924801749 27.3099740034466834
 28.1019361410892934 32.4166980924801749 30.1949696706877972
 28.1019361410892934 32.4166980924801749 33.0799653379289111
 28.1019361410892934 32.4166980924801749 35.9649610051700250
 28.1019361410892934 32.4166980924801749 38.8499566724111389
 25.7257408959877694 34.1431049928905566 15.7699913344822278
 25.7257408959877694 34.1431049928905566 18.6549870017233417
 25.7257408959877694 34.1431049928905566 21.5399826689644556
 25.7257408959877694 34.1431049928905566 24.4249783362055695
 25.7257408959877694 34.1431049928905566 27.3099740034466834
 25.7257408959877694 34.1431049928905566 30.1949696706877972
 25.7257408959877694 34.1431049928905566 33.0799653379289111
 25.7257408959877694 34.1431049928905566 35.9649610051700250
 25.7257408959877694 34.1431049928905566 38.8499566724111389
 23.3495456508862489 32.4166980924801749 15.7699913344822278
 23.3495456508862489 32.4166980924801749 18.6549870017233417
 23.3495456508862489 32.4166980924801749 21.5399826689644556
 23.3495456508862489 32.4166980924801749 24.4249783362055695
 23.3495456508862489 32.4166980924801749 27.3099740034466834
 23.3495456508862489 32.4166980924801749 30.1949696706877972
 23.3495456508862489 32.4166980924801749 33.0799653379289111
 23.3495456508862489 32.4166980924801749 35.9649610051700250
 23.3495456508862489 32.4166980924801749 38.8499566724111389
 20.9733504057847249 30.6902911920698003 15.7699913344822278
 20.9733504057847249 30.6902911920698003 18.6549870017233417
 20.9733504057847249 30.6902911920698003 21.5399826689644556
 20.9733504057847249 30.6902911920698003 24.4249783362055695
 20.9733504057847249 30.6902911920698003 27.3099740034466834
 20.9733504057847249 30.6902911920698003 30.1949696706877972
 20.9733504057847249 30.6902911920698003 33.0799653379289111
 20.9733504057847249 30.6902911920698003 35.9649610051700250
 20.9733504057847249 30.6902911920698003 38.8499566724111389
 18.5971551606832008 28.9638842916594221 15.7699913344822278
 18.5971551606832008 28.9638842916594221 18.6549870017233417
 18.5971551606832008 28.9638842916594221 21.5399826689644556
 18.5971551606832008 28.9638842916594221 24.4249783362055695
 18.5971551606832008 28.9638842916594221 27.3099740034466834
 18.5971551606832008 28.9638842916594221 30.1949696706877972
 18.5971551606832008 28.9638842916594221 33.0799653379289111
 18.5971551606832008 28.9638842916594221 35.9649610051700250
 18.5971551606832008 28.9638842916594221 38.8499566724111389
 16.2209599155816804 27.2374773912490440 15.7699913344822278
 16.2209599155816804 27.2374773912490440 18.6549870017233417
 16.2209599155816804 27.2374773912490440 21.5399826689644556
 16.2209599155816804 27.2374773912490440 24.4249783362055695
 16.2209599155816804 27.2374773912490440 27.3099740034466834
 16.2209599155816804 27.2374773912490440 30.1949696706877972
 16.2209599155816804 27.2374773912490440 33.0799653379289111
 16.2209599155816804 27.2374773912490440 35.9649610051700250
 16.2209599155816804 27.2374773912490440 38.8499566724111389
 17.1285857353045721 24.4440923479726955 15.7699913344822278
 17.1285857353045721 24.4440923479726955 18.6549870017233417
 17.1285857353045721 24.4440923479726955 21.5399826689644556
 17.1285857353045721 24.4440923479726955 24.4249783362055695
 17.1285857353045721 24.4440923479726955 27.3099740034466834
 17.1285857353045721 24.4440923479726955 30.1949696706877972
 17.1285857353045721 24.4440923479726955 33.0799653379289111
 17.1285857353045721 24.4440923479726955 35.9649610051700250
 17.1285857353045721 24.4440923479726955 38.8499566724111389
 18.0362115550274673 21.6507073046963505 15.7699913344822278
 18.0362115550274673 21.6507073046963505 18.6549870017233417
 18.0362115550274673 21.6507073046963505 21.5399826689644556
 18.0362115550274673 21.6507073046963505 24.4249783362055695
 18.0362115550274673 21.6507073046963505 27.3099740034466834
 18.0362115550274673 21.6507073046963505 30.1949696706877972
 18.0362115550274673 21.6507073046963505 33.0799653379289111
 18.0362115550274673 21.6507073046963505 35.9649610051700250
 18.0362115550274673 21.6507073046963505 38.8499566724111389
 18.9438373747503626 18.8573222614200020 15.7699913344822278
 18.9438373747503626 18.8573222614200020 18.6549870017233417
 18.9438373747503626 18.8573222614200020 21.5399826689644556
 18.9438373747503626 18.8573222614200020 24.4249783362055695
 18.9438373747503626 18.8573222614200020 27.3099740034466834
 18.9438373747503626 18.8573222614200020 30.1949696706877972
 18.9438373747503626 18.8573222614200020 33.0799653379289111
 18.9438373747503626 18.8573222614200020 35.9649610051700250
 18.9438373747503626 18.8573222614200020 38.8499566724111389
 19.8514631944732542 16.0639372181436570 15.7699913344822278
 19.8514631944732542 16.0639372181436570 18.6549870017233417
 19.8514631944732542 16.0639372181436570 21.5399826689644556
 19.8514631944732542 16.0639372181436570 24.4249783362055695
 19.8514631944732542 16.0639372181436570 27.3099740034466834
 19.8514631944732542 16.0639372181436570 30.1949696706877972
 19.8514631944732542 16.0639372181436570 33.0799653379289111
 19.8514631944732542 16.0639372181436570 35.9649610051700250
 19.8514631944732542 16.0639372181436570 38.8499566724111389
 22.7886020452305118 16.0639372181436535 15.7699913344822278
 22.7886020452305118 16.0639372181436535 18.6549870017233417
 22.7886020452305118 16.0639372181436535 21.5399826689644556
 22.7886020452305118 16.0639372181436535 24.4249783362055695
 22.7886020452305118 16.0639372181436535 27.3099740034466834
 22.7886020452305118 16.0639372181436535 30.1949696706877972
 22.7886020452305118 16.0639372181436535 33.0799653379289111
 22.7886020452305118 16.0639372181436535 35.9649610051700250
 22.7886020452305118 16.0639372181436535 38.8499566724111389
 25.7257408959877694 16.0639372181436535 15.7699913344822278
 25.7257408959877694 16.0639372181436535 18.6549870017233417
 25.7257408959877694 16.0639372181436535 21.5399826689644556
 25.7257408959877694 16.0639372181436535 24.4249783362055695
 25.7257408959877694 16.0639372181436535 27.3099740034466834
 25.7257408959877694 16.0639372181436535 30.1949696706877972
 25.7257408959877694 16.0639372181436535 33.0799653379289111
 25.7257408959877694 16.0639372181436535 35.9649610051700250
 25.7257408959877694 16.0639372181436535 38.8499566724111389
 28.6628797467450234 16.0639372181436535 15.7699913344822278
 28.6628797467450234 16.0639372181436535 18.6549870017233417
 28.6628797467450234 16.0639372181436535 21.5399826689644556
 28.6628797467450234 16.0639372181436535 24.4249783362055695
 28.6628797467450234 16.0639372181436535 27.3099740034466834
 28.6628797467450234 16.0639372181436535 30.1949696706877972
 28.6628797467450234 16.0639372181436535 33.0799653379289111
 28.6628797467450234 16.0639372181436535 35.9649610051700250
 28.6628797467450234 16.0639372181436535 38.8499566724111389
 31.6000185975022809 16.0639372181436535 15.7699913344822278
 31.6000185975022809 16.0639372181436535 18.6549870017233417
 31.6000185975022809 16.0639372181436535 21.5399826689644556
 31.6000185975022809 16.0639372181436535 24.4249783362055695
 31.6000185975022809 16.0639372181436535 27.3099740034466834
 31.6000185975022809 16.0639372181436535 30.1949696706877972
 31.6000185975022809 16.0639372181436535 33.0799653379289111
 31.6000185975022809 16.0639372181436535 35.9649610051700250
 31.6000185975022809 16.0639372181436535 38.8499566724111389
 32.5076444172251726 18.8573222614200020 15.7699913344822278