Pt 
 1.0000000000000000
    29.1320444713705555    0.0000000000000000    0.0000000000000000
     0.0000000000000000   28.6850904015940991    0.0000000000000000
     0.0000000000000000    0.0000000000000000   36.6311514935076019
 Pt 
  87
Cartesian
 14.5660222356852778 13.8840905057390707 10.0000000000000018
 14.5660222356852778 13.8840905057390707 12.7718585822512676
 14.5660222356852778 13.8840905057390707 15.5437171645025352
 14.5660222356852778 13.8840905057390707 18.3155757467538010
 14.5660222356852778 13.8840905057390707 21.0874343290050668
 14.5660222356852778 13.8840905057390707 23.8592929112563326
 14.5660222356852778 13.8840905057390707 26.6311514935076019
 16.8490333535279184 14.6258857846448489 11.3859292911256347
 16.8490333535279184 14.6258857846448489 14.1577878733769023
 16.8490333535279184 14.6258857846448489 16.9296464556281663
 16.8490333535279184 14.6258857846448489 19.7015050378794356
 16.8490333535279184 14.6258857846448489 22.4733636201307014
 16.8490333535279184 14.6258857846448489 25.2452222023819672
 14.5660222356852778 16.2845904536665849 11.3859292911256347
 14.5660222356852778 16.2845904536665849 14.1577878733769023
 14.5660222356852778 16.2845904536665849 16.9296464556281663
 14.5660222356852778 16.2845904536665849 19.7015050378794356
 14.5660222356852778 16.2845904536665849 22.4733636201307014
 14.5660222356852778 16.2845904536665849 25.2452222023819672
 12.2830111178426389 14.6258857846448489 11.3859292911256347
 12.2830111178426389 14.6258857846448489 14.1577878733769023
 12.2830111178426389 14.6258857846448489 16.9296464556281663
 12.2830111178426389 14.6258857846448489 19.7015050378794356
 12.2830111178426389 14.6258857846448489 22.4733636201307014
 12.2830111178426389 14.6258857846448489 25.2452222023819672
 13.1550437681646351 11.9420452528695353 11.3859292911256347
 13.1550437681646351 11.9420452528695353 14.1577878733769023
 13.1550437681646351 11.9420452528695353 16.9296464556281663
 13.1550437681646351 11.9420452528695353 19.7015050378794356
 13.1550437681646351 11.9420452528695353 22.4733636201307014
 13.1550437681646351 11.9420452528695353 25.2452222023819672
 15.9770007032059205 11.9420452528695353 11.3859292911256347
 15.9770007032059205 11.9420452528695353 14.1577878733769023
 15.9770007032059205 11.9420452528695353 16.9296464556281663
 15.9770007032059205 11.9420452528695353 19.7015050378794356
 15.9770007032059205 11.9420452528695353 22.4733636201307014
 15.9770007032059205 11.9420452528695353 25.2452222023819672
 19.1320444713705555 15.3676810635506254 12.7718585822512694
 19.1320444713705555 15.3676810635506254 15.5437171645025352
 19.1320444713705555 15.3676810635506254 18.3155757467538010
 19.1320444713705555 15.3676810635506254 21.0874343290050668
 19.1320444713705555 15.3676810635506254 23.8592929112563326
 16.8490333535279184 17.0263857325723613 12.7718585822512694
 16.8490333535279184 17.0263857325723613 15.5437171645025352
 16.8490333535279184 17.0263857325723613 18.3155757467538010
 16.8490333535279184 17.0263857325723613 21.0874343290050668
 16.8490333535279184 17.0263857325723613 23.8592929112563326
 14.5660222356852778 18.6850904015940991 12.7718585822512694
 14.5660222356852778 18.6850904015940991 15.5437171645025352
 14.5660222356852778 18.6850904015940991 18.3155757467538010
 14.5660222356852778 18.6850904015940991 21.0874343290050668
 14.5660222356852778 18.6850904015940991 23.8592929112563326
 12.2830111178426389 17.0263857325723649 12.7718585822512694
 12.2830111178426389 17.0263857325723649 15.5437171645025352
 12.2830111178426389 17.0263857325723649 18.3155757467538010
 12.2830111178426389 17.0263857325723649 21.0874343290050668
 12.2830111178426389 17.0263857325723649 23.8592929112563326
 10.0000000000000000 15.3676810635506271 12.7718585822512694
 10.0000000000000000 15.3676810635506271 15.5437171645025352
 10.0000000000000000 15.3676810635506271 18.3155757467538010
 10.0000000000000000 15.3676810635506271 21.0874343290050668
 10.0000000000000000 15.3676810635506271 23.8592929112563326
 10.8720326503219944 12.6838405317753136 12.7718585822512694
 10.8720326503219944 12.6838405317753136 15.5437171645025352
 10.8720326503219944 12.6838405317753136 18.3155757467538010
 10.8720326503219944 12.6838405317753136 21.0874343290050668
 10.8720326503219944 12.6838405317753136 23.8592929112563326
 11.7440653006439923 10.0000000000000000 12.7718585822512694
 11.7440653006439923 10.0000000000000000 15.5437171645025352
 11.7440653006439923 10.0000000000000000 18.3155757467538010
 11.7440653006439923 10.0000000000000000 21.0874343290050668
 11.7440653006439923 10.0000000000000000 23.8592929112563326
 14.5660222356852778 10.0000000000000000 12.7718585822512694
 14.5660222356852778 10.0000000000000000 15.5437171645025352
 14.5660222356852778 10.0000000000000000 18.3155757467538010
 14.5660222356852778 10.0000000000000000 21.0874343290050668
 14.5660222356852778 10.0000000000000000 23.8592929112563326
 17.3879791707265632 10.0000000000000000 12.7718585822512694
 17.3879791707265632 10.0000000000000000 15.5437171645025352
 17.3879791707265632 10.0000000000000000 18.3155757467538010
 17.3879791707265632 10.0000000000000000 21.0874343290050668
 17.3879791707265632 10.0000000000000000 23.8592929112563326
 18.2600118210485576 12.6838405317753136 12.7718585822512694
 18.2600118210485576 12.6838405317753136 15.5437171645025352
 18.2600118210485576 12.6838405317753136 18.3155757467538010
 18.2600118210485576 12.6838405317753136 21.0874343290050668
 18.2600118210485576 12.6838405317753136 23.8592929112563326
