Pt 
 1.0000000000000000
    31.7599999999999980    0.0000000000000000    0.0000000000000000
     0.0000000000000000   31.7599999999999980    0.0000000000000000
     0.0000000000000000    0.0000000000000000   31.7599999999999980
 Pt 
 116
Cartesian
  9.9999999999999982 11.9599999999999973 15.8799999999999990
 11.9599999999999973  9.9999999999999982 15.8799999999999990
 11.9599999999999973 11.9599999999999973 13.9199999999999982
 11.9599999999999973 11.9599999999999973 17.8399999999999963
  9.9999999999999982 15.8799999999999990 11.9599999999999973
 11.9599999999999973 13.9199999999999982 11.9599999999999973
 11.9599999999999973 15.8799999999999990  9.9999999999999982
  9.9999999999999982 13.9199999999999982 13.9199999999999982
  9.9999999999999982 15.8799999999999990 15.8799999999999990
 11.9599999999999973 13.9199999999999982 15.8799999999999990
 11.9599999999999973 15.8799999999999990 13.9199999999999982
  9.9999999999999982 13.9199999999999982 17.8399999999999963
  9.9999999999999982 15.8799999999999990 19.7999999999999972
 11.9599999999999973 13.9199999999999982 19.7999999999999972
 11.9599999999999973 15.8799999999999990 17.8399999999999963
 11.9599999999999973 15.8799999999999990 21.7599999999999980
 11.9599999999999973 17.8399999999999963 11.9599999999999973
  9.9999999999999982 17.8399999999999963 13.9199999999999982
  9.9999999999999982 19.7999999999999972 15.8799999999999990
 11.9599999999999973 17.8399999999999963 15.8799999999999990
 11.9599999999999973 19.7999999999999972 13.9199999999999982
  9.9999999999999982 17.8399999999999963 17.8399999999999963
 11.9599999999999973 17.8399999999999963 19.7999999999999972
 11.9599999999999973 19.7999999999999972 17.8399999999999963
 11.9599999999999973 21.7599999999999980 15.8799999999999990
 13.9199999999999982 11.9599999999999973 11.9599999999999973
 15.8799999999999990  9.9999999999999982 11.9599999999999973
 15.8799999999999990 11.9599999999999973  9.9999999999999982
 13.9199999999999982  9.9999999999999982 13.9199999999999982
 13.9199999999999982 11.9599999999999973 15.8799999999999990
 15.8799999999999990  9.9999999999999982 15.8799999999999990
 15.8799999999999990 11.9599999999999973 13.9199999999999982
 13.9199999999999982  9.9999999999999982 17.8399999999999963
 13.9199999999999982 11.9599999999999973 19.7999999999999972
 15.8799999999999990  9.9999999999999982 19.7999999999999972
 15.8799999999999990 11.9599999999999973 17.8399999999999963
 15.8799999999999990 11.9599999999999973 21.7599999999999980
 13.9199999999999982 13.9199999999999982  9.9999999999999982
 13.9199999999999982 15.8799999999999990 11.9599999999999973
 15.8799999999999990 13.9199999999999982 11.9599999999999973
 15.8799999999999990 15.8799999999999990  9.9999999999999982
 13.9199999999999982 13.9199999999999982 13.9199999999999982
 13.9199999999999982 15.8799999999999990 15.8799999999999990
 15.8799999999999990 13.9199999999999982 15.8799999999999990
 15.8799999999999990 15.8799999999999990 13.9199999999999982
 13.9199999999999982 13.9199999999999982 17.8399999999999963
 13.9199999999999982 15.8799999999999990 19.7999999999999972
 15.8799999999999990 13.9199999999999982 19.7999999999999972
 15.8799999999999990 15.8799999999999990 17.8399999999999963
 13.9199999999999982 13.9199999999999982 21.7599999999999980
 15.8799999999999990 15.8799999999999990 21.7599999999999980
 13.9199999999999982 17.8399999999999963  9.9999999999999982
 13.9199999999999982 19.7999999999999972 11.9599999999999973
 15.8799999999999990 17.8399999999999963 11.9599999999999973
 15.8799999999999990 19.7999999999999972  9.9999999999999982
 13.9199999999999982 17.8399999999999963 13.9199999999999982
 13.9199999999999982 19.7999999999999972 15.8799999999999990
 15.8799999999999990 17.8399999999999963 15.8799999999999990
 15.8799999999999990 19.7999999999999972 13.9199999999999982
 13.9199999999999982 17.8399999999999963 17.8399999999999963
 13.9199999999999982 19.7999999999999972 19.7999999999999972
 15.8799999999999990 17.8399999999999963 19.7999999999999972
 15.8799999999999990 19.7999999999999972 17.8399999999999963
 13.9199999999999982 17.8399999999999963 21.7599999999999980
 15.8799999999999990 19.7999999999999972 21.7599999999999980
 15.8799999999999990 21.7599999999999980 11.9599999999999973
 13.9199999999999982 21.7599999999999980 13.9199999999999982
 15.8799999999999990 21.7599999999999980 15.8799999999999990
 13.9199999999999982 21.7599999999999980 17.8399999999999963
 15.8799999999999990 21.7599999999999980 19.7999999999999972
 17.8399999999999963 11.9599999999999973 11.9599999999999973
 17.8399999999999963  9.9999999999999982 13.9199999999999982
 17.8399999999999963 11.9599999999999973 15.8799999999999990
 19.7999999999999972  9.9999999999999982 15.8799999999999990
 19.7999999999999972 11.9599999999999973 13.9199999999999982
 17.8399999999999963  9.9999999999999982 17.8399999999999963
 17.8399999999999963 11.9599999999999973 19.7999999999999972
 19.7999999999999972 11.9599999999999973 17.8399999999999963
 17.8399999999999963 13.9199999999999982  9.9999999999999982
 17.8399999999999963 15.8799999999999990 11.9599999999999973
 19.7999999999999972 13.9199999999999982 11.9599999999999973
 19.7999999999999972 15.8799999999999990  9.9999999999999982
 17.8399999999999963 13.9199999999999982 13.9199999999999982
 17.8399999999999963 15.8799999999999990 15.8799999999999990
 19.7999999999999972 13.9199999999999982 15.8799999999999990
 19.7999999999999972 15.8799999999999990 13.9199999999999982
 17.8399999999999963 13.9199999999999982 17.8399999999999963
 17.8399999999999963 15.8799999999999990 19.7999999999999972
 19.7999999999999972 13.9199999999999982 19.7999999999999972
 19.7999999999999972 15.8799999999999990 17.8399999999999963
 17.8399999999999963 13.9199999999999982 21.7599999999999980
 19.7999999999999972 15.8799999999999990 21.7599999999999980
 17.8399999999999963 17.8399999999999963  9.9999999999999982
 17.8399999999999963 19.7999999999999972 11.9599999999999973
 19.7999999999999972 17.8399999999999963 11.9599999999999973
 17.8399999999999963 17.8399999999999963 13.9199999999999982
 17.8399999999999963 19.7999999999999972 15.8799999999999990
 19.7999999999999972 17.8399999999999963 15.8799999999999990
 19.7999999999999972 19.7999999999999972 13.9199999999999982
 17.8399999999999963 17.8399999999999963 17.8399999999999963
 17.8399999999999963 19.7999999999999972 19.7999999999999972
 19.7999999999999972 17.8399999999999963 19.7999999999999972
 19.7999999999999972 19.7999999999999972 17.8399999999999963
 17.8399999999999963 17.8399999999999963 21.7599999999999980
 17.8399999999999963 21.7599999999999980 13.9199999999999982
 19.7999999999999972 21.7599999999999980 15.8799999999999990
 17.8399999999999963 21.7599999999999980 17.8399999999999963
 21.7599999999999980 11.9599999999999973 15.8799999999999990
 21.7599999999999980 15.8799999999999990 11.9599999999999973
 21.7599999999999980 13.9199999999999982 13.9199999999999982
 21.7599999999999980 15.8799999999999990 15.8799999999999990
 21.7599999999999980 13.9199999999999982 17.8399999999999963
 21.7599999999999980 15.8799999999999990 19.7999999999999972
 21.7599999999999980 17.8399999999999963 13.9199999999999982
 21.7599999999999980 19.7999999999999972 15.8799999999999990
 21.7599999999999980 17.8399999999999963 17.8399999999999963
