Pt 
 1.0000000000000000
    54.1179389185915340    0.0000000000000000    0.0000000000000000
     0.0000000000000000   52.4480881310865072    0.0000000000000000
     0.0000000000000000    0.0000000000000000   50.4904444047639274
 Pt 
 977
Cartesian
 27.0589694592957670 27.4784072758258233 10.0000000000000036
 27.0589694592957670 27.4784072758258233 12.7718585822512694
 27.0589694592957670 27.4784072758258233 15.5437171645025352
 27.0589694592957670 27.4784072758258233 18.3155757467538010
 27.0589694592957670 27.4784072758258233 21.0874343290050703
 27.0589694592957670 27.4784072758258233 23.8592929112563326
 27.0589694592957670 27.4784072758258233 26.6311514935076019
 27.0589694592957670 27.4784072758258233 29.4030100757588677
 27.0589694592957670 27.4784072758258233 32.1748686580101335
 27.0589694592957670 27.4784072758258233 34.9467272402613958
 27.0589694592957670 27.4784072758258233 37.7185858225126651
 27.0589694592957670 27.4784072758258233 40.4904444047639345
 29.3419805771384077 28.2202025547315998 11.3859292911256365
 29.3419805771384077 28.2202025547315998 14.1577878733769023
 29.3419805771384077 28.2202025547315998 16.9296464556281698
 29.3419805771384077 28.2202025547315998 19.7015050378794356
 29.3419805771384077 28.2202025547315998 22.4733636201307014
 29.3419805771384077 28.2202025547315998 25.2452222023819672
 29.3419805771384077 28.2202025547315998 28.0170807846332366
 29.3419805771384077 28.2202025547315998 30.7889393668844988
 29.3419805771384077 28.2202025547315998 33.5607979491357682
 29.3419805771384077 28.2202025547315998 36.3326565313870304
 29.3419805771384077 28.2202025547315998 39.1045151136382998
 27.0589694592957670 29.8789072237533375 11.3859292911256365
 27.0589694592957670 29.8789072237533375 14.1577878733769023
 27.0589694592957670 29.8789072237533375 16.9296464556281698
 27.0589694592957670 29.8789072237533375 19.7015050378794356
 27.0589694592957670 29.8789072237533375 22.4733636201307014
 27.0589694592957670 29.8789072237533375 25.2452222023819672
 27.0589694592957670 29.8789072237533375 28.0170807846332366
 27.0589694592957670 29.8789072237533375 30.7889393668844988
 27.0589694592957670 29.8789072237533375 33.5607979491357682
 27.0589694592957670 29.8789072237533375 36.3326565313870304
 27.0589694592957670 29.8789072237533375 39.1045151136382998
 24.7759583414531264 28.2202025547316033 11.3859292911256365
 24.7759583414531264 28.2202025547316033 14.1577878733769023
 24.7759583414531264 28.2202025547316033 16.9296464556281698
 24.7759583414531264 28.2202025547316033 19.7015050378794356
 24.7759583414531264 28.2202025547316033 22.4733636201307014
 24.7759583414531264 28.2202025547316033 25.2452222023819672
 24.7759583414531264 28.2202025547316033 28.0170807846332366
 24.7759583414531264 28.2202025547316033 30.7889393668844988
 24.7759583414531264 28.2202025547316033 33.5607979491357682
 24.7759583414531264 28.2202025547316033 36.3326565313870304
 24.7759583414531264 28.2202025547316033 39.1045151136382998
 25.6479909917751243 25.5363620229562898 11.3859292911256365
 25.6479909917751243 25.5363620229562898 14.1577878733769023
 25.6479909917751243 25.5363620229562898 16.9296464556281698
 25.6479909917751243 25.5363620229562898 19.7015050378794356
 25.6479909917751243 25.5363620229562898 22.4733636201307014
 25.6479909917751243 25.5363620229562898 25.2452222023819672
 25.6479909917751243 25.5363620229562898 28.0170807846332366
 25.6479909917751243 25.5363620229562898 30.7889393668844988
 25.6479909917751243 25.5363620229562898 33.5607979491357682
 25.6479909917751243 25.5363620229562898 36.3326565313870304
 25.6479909917751243 25.5363620229562898 39.1045151136382998
 28.4699479268164097 25.5363620229562862 11.3859292911256365
 28.4699479268164097 25.5363620229562862 14.1577878733769023
 28.4699479268164097 25.5363620229562862 16.9296464556281698
 28.4699479268164097 25.5363620229562862 19.7015050378794356
 28.4699479268164097 25.5363620229562862 22.4733636201307014
 28.4699479268164097 25.5363620229562862 25.2452222023819672
 28.4699479268164097 25.5363620229562862 28.0170807846332366
 28.4699479268164097 25.5363620229562862 30.7889393668844988
 28.4699479268164097 25.5363620229562862 33.5607979491357682
 28.4699479268164097 25.5363620229562862 36.3326565313870304
 28.4699479268164097 25.5363620229562862 39.1045151136382998
 31.6249916949810448 28.9619978336373798 12.7718585822512694
 31.6249916949810448 28.9619978336373798 15.5437171645025352
 31.6249916949810448 28.9619978336373798 18.3155757467538010
 31.6249916949810448 28.9619978336373798 21.0874343290050703
 31.6249916949810448 28.9619978336373798 23.8592929112563326
 31.6249916949810448 28.9619978336373798 26.6311514935076019
 31.6249916949810448 28.9619978336373798 29.4030100757588677
 31.6249916949810448 28.9619978336373798 32.1748686580101335
 31.6249916949810448 28.9619978336373798 34.9467272402613958
 31.6249916949810448 28.9619978336373798 37.7185858225126651
 29.3419805771384077 30.6207025026591140 12.7718585822512694
 29.3419805771384077 30.6207025026591140 15.5437171645025352
 29.3419805771384077 30.6207025026591140 18.3155757467538010
 29.3419805771384077 30.6207025026591140 21.0874343290050703
 29.3419805771384077 30.6207025026591140 23.8592929112563326
 29.3419805771384077 30.6207025026591140 26.6311514935076019
 29.3419805771384077 30.6207025026591140 29.4030100757588677
 29.3419805771384077 30.6207025026591140 32.1748686580101335
 29.3419805771384077 30.6207025026591140 34.9467272402613958
 29.3419805771384077 30.6207025026591140 37.7185858225126651
 27.0589694592957670 32.2794071716808517 12.7718585822512694
 27.0589694592957670 32.2794071716808517 15.5437171645025352
 27.0589694592957670 32.2794071716808517 18.3155757467538010
 27.0589694592957670 32.2794071716808517 21.0874343290050703
 27.0589694592957670 32.2794071716808517 23.8592929112563326
 27.0589694592957670 32.2794071716808517 26.6311514935076019
 27.0589694592957670 32.2794071716808517 29.4030100757588677
 27.0589694592957670 32.2794071716808517 32.1748686580101335
 27.0589694592957670 32.2794071716808517 34.9467272402613958
 27.0589694592957670 32.2794071716808517 37.7185858225126651
 24.7759583414531264 30.6207025026591140 12.7718585822512694
 24.7759583414531264 30.6207025026591140 15.5437171645025352
 24.7759583414531264 30.6207025026591140 18.3155757467538010
 24.7759583414531264 30.6207025026591140 21.0874343290050703
 24.7759583414531264 30.6207025026591140 23.8592929112563326
 24.7759583414531264 30.6207025026591140 26.6311514935076019
 24.7759583414531264 30.6207025026591140 29.4030100757588677
 24.7759583414531264 30.6207025026591140 32.1748686580101335
 24.7759583414531264 30.6207025026591140 34.9467272402613958
 24.7759583414531264 30.6207025026591140 37.7185858225126651
 22.4929472236104893 28.9619978336373798 12.7718585822512694
 22.4929472236104893 28.9619978336373798 15.5437171645025352
 22.4929472236104893 28.9619978336373798 18.3155757467538010
 22.4929472236104893 28.9619978336373798 21.0874343290050703
 22.4929472236104893 28.9619978336373798 23.8592929112563326
 22.4929472236104893 28.9619978336373798 26.6311514935076019
 22.4929472236104893 28.9619978336373798 29.4030100757588677
 22.4929472236104893 28.9619978336373798 32.1748686580101335
 22.4929472236104893 28.9619978336373798 34.9467272402613958
 22.4929472236104893 28.9619978336373798 37.7185858225126651
 23.3649798739324837 26.2781573018620662 12.7718585822512694
 23.3649798739324837 26.2781573018620662 15.5437171645025352
 23.3649798739324837 26.2781573018620662 18.3155757467538010
 23.3649798739324837 26.2781573018620662 21.0874343290050703
 23.3649798739324837 26.2781573018620662 23.8592929112563326
 23.3649798739324837 26.2781573018620662 26.6311514935076019
 23.3649798739324837 26.2781573018620662 29.4030100757588677
 23.3649798739324837 26.2781573018620662 32.1748686580101335
 23.3649798739324837 26.2781573018620662 34.9467272402613958
 23.3649798739324837 26.2781573018620662 37.7185858225126651
 24.2370125242544816 23.5943167700867527 12.7718585822512694
 24.2370125242544816 23.5943167700867527 15.5437171645025352
 24.2370125242544816 23.5943167700867527 18.3155757467538010
 24.2370125242544816 23.5943167700867527 21.0874343290050703
 24.2370125242544816 23.5943167700867527 23.8592929112563326
 24.2370125242544816 23.5943167700867527 26.6311514935076019
 24.2370125242544816 23.5943167700867527 29.4030100757588677
 24.2370125242544816 23.5943167700867527 32.1748686580101335
 24.2370125242544816 23.5943167700867527 34.9467272402613958
 24.2370125242544816 23.5943167700867527 37.7185858225126651
 27.0589694592957670 23.5943167700867527 12.7718585822512694
 27.0589694592957670 23.5943167700867527 15.5437171645025352
 27.0589694592957670 23.5943167700867527 18.3155757467538010
 27.0589694592957670 23.5943167700867527 21.0874343290050703
 27.0589694592957670 23.5943167700867527 23.8592929112563326
 27.0589694592957670 23.5943167700867527 26.6311514935076019
 27.0589694592957670 23.5943167700867527 29.4030100757588677
 27.0589694592957670 23.5943167700867527 32.1748686580101335
 27.0589694592957670 23.5943167700867527 34.9467272402613958
 27.0589694592957670 23.5943167700867527 37.7185858225126651
 29.8809263943370524 23.5943167700867527 12.7718585822512694
 29.8809263943370524 23.5943167700867527 15.5437171645025352
 29.8809263943370524 23.5943167700867527 18.3155757467538010
 29.8809263943370524 23.5943167700867527 21.0874343290050703
 29.8809263943370524 23.5943167700867527 23.8592929112563326
 29.8809263943370524 23.5943167700867527 26.6311514935076019
 29.8809263943370524 23.5943167700867527 29.4030100757588677
 29.8809263943370524 23.5943167700867527 32.1748686580101335
 29.8809263943370524 23.5943167700867527 34.9467272402613958
 29.8809263943370524 23.5943167700867527 37.7185858225126651
 30.7529590446590504 26.2781573018620662 12.7718585822512694
 30.7529590446590504 26.2781573018620662 15.5437171645025352
 30.7529590446590504 26.2781573018620662 18.3155757467538010
 30.7529590446590504 26.2781573018620662 21.0874343290050703
 30.7529590446590504 26.2781573018620662 23.8592929112563326
 30.7529590446590504 26.2781573018620662 26.6311514935076019
 30.7529590446590504 26.2781573018620662 29.4030100757588677
 30.7529590446590504 26.2781573018620662 32.1748686580101335
 30.7529590446590504 26.2781573018620662 34.9467272402613958
 30.7529590446590504 26.2781573018620662 37.7185858225126651
 33.9080028128236819 29.7037931125431562 14.1577878733769023
 33.9080028128236819 29.7037931125431562 16.9296464556281663
 33.9080028128236819 29.7037931125431562 19.7015050378794356
 33.9080028128236819 29.7037931125431562 22.4733636201307014
 33.9080028128236819 29.7037931125431562 25.2452222023819672
 33.9080028128236819 29.7037931125431562 28.0170807846332330
 33.9080028128236819 29.7037931125431562 30.7889393668844988
 33.9080028128236819 29.7037931125431562 33.5607979491357682
 33.9080028128236819 29.7037931125431562 36.3326565313870304
 31.6249916949810448 31.3624977815648940 14.1577878733769023
 31.6249916949810448 31.3624977815648940 16.9296464556281663
 31.6249916949810448 31.3624977815648940 19.7015050378794356
 31.6249916949810448 31.3624977815648940 22.4733636201307014
 31.6249916949810448 31.3624977815648940 25.2452222023819672
 31.6249916949810448 31.3624977815648940 28.0170807846332330
 31.6249916949810448 31.3624977815648940 30.7889393668844988
 31.6249916949810448 31.3624977815648940 33.5607979491357682
 31.6249916949810448 31.3624977815648940 36.3326565313870304
 29.3419805771384077 33.0212024505866282 14.1577878733769023
 29.3419805771384077 33.0212024505866282 16.9296464556281663
 29.3419805771384077 33.0212024505866282 19.7015050378794356
 29.3419805771384077 33.0212024505866282 22.4733636201307014
 29.3419805771384077 33.0212024505866282 25.2452222023819672
 29.3419805771384077 33.0212024505866282 28.0170807846332330
 29.3419805771384077 33.0212024505866282 30.7889393668844988
 29.3419805771384077 33.0212024505866282 33.5607979491357682
 29.3419805771384077 33.0212024505866282 36.3326565313870304
 27.0589694592957670 34.6799071196083659 14.1577878733769023
 27.0589694592957670 34.6799071196083659 16.9296464556281663
 27.0589694592957670 34.6799071196083659 19.7015050378794356
 27.0589694592957670 34.6799071196083659 22.4733636201307014
 27.0589694592957670 34.6799071196083659 25.2452222023819672
 27.0589694592957670 34.6799071196083659 28.0170807846332330
 27.0589694592957670 34.6799071196083659 30.7889393668844988
 27.0589694592957670 34.6799071196083659 33.5607979491357682
 27.0589694592957670 34.6799071196083659 36.3326565313870304
 24.7759583414531264 33.0212024505866282 14.1577878733769023
 24.7759583414531264 33.0212024505866282 16.9296464556281663
 24.7759583414531264 33.0212024505866282 19.7015050378794356
 24.7759583414531264 33.0212024505866282 22.4733636201307014
 24.7759583414531264 33.0212024505866282 25.2452222023819672
 24.7759583414531264 33.0212024505866282 28.0170807846332330
 24.7759583414531264 33.0212024505866282 30.7889393668844988
 24.7759583414531264 33.0212024505866282 33.5607979491357682
 24.7759583414531264 33.0212024505866282 36.3326565313870304
 22.4929472236104893 31.3624977815648940 14.1577878733769023
 22.4929472236104893 31.3624977815648940 16.9296464556281663
 22.4929472236104893 31.3624977815648940 19.7015050378794356
 22.4929472236104893 31.3624977815648940 22.4733636201307014
 22.4929472236104893 31.3624977815648940 25.2452222023819672
 22.4929472236104893 31.3624977815648940 28.0170807846332330
 22.4929472236104893 31.3624977815648940 30.7889393668844988
 22.4929472236104893 31.3624977815648940 33.5607979491357682
 22.4929472236104893 31.3624977815648940 36.3326565313870304
 20.2099361057678486 29.7037931125431598 14.1577878733769023
 20.2099361057678486 29.7037931125431598 16.9296464556281663
 20.2099361057678486 29.7037931125431598 19.7015050378794356
 20.2099361057678486 29.7037931125431598 22.4733636201307014
 20.2099361057678486 29.7037931125431598 25.2452222023819672
 20.2099361057678486 29.7037931125431598 28.0170807846332330
 20.2099361057678486 29.7037931125431598 30.7889393668844988
 20.2099361057678486 29.7037931125431598 33.5607979491357682
 20.2099361057678486 29.7037931125431598 36.3326565313870304
 21.0819687560898466 27.0199525807678462 14.1577878733769023
 21.0819687560898466 27.0199525807678462 16.9296464556281663
 21.0819687560898466 27.0199525807678462 19.7015050378794356
 21.0819687560898466 27.0199525807678462 22.4733636201307014
 21.0819687560898466 27.0199525807678462 25.2452222023819672
 21.0819687560898466 27.0199525807678462 28.0170807846332330
 21.0819687560898466 27.0199525807678462 30.7889393668844988
 21.0819687560898466 27.0199525807678462 33.5607979491357682
 21.0819687560898466 27.0199525807678462 36.3326565313870304
 21.9540014064118409 24.3361120489925327 14.1577878733769023
 21.9540014064118409 24.3361120489925327 16.9296464556281663
 21.9540014064118409 24.3361120489925327 19.7015050378794356
 21.9540014064118409 24.3361120489925327 22.4733636201307014
 21.9540014064118409 24.3361120489925327 25.2452222023819672
 21.9540014064118409 24.3361120489925327 28.0170807846332330
 21.9540014064118409 24.3361120489925327 30.7889393668844988
 21.9540014064118409 24.3361120489925327 33.5607979491357682
 21.9540014064118409 24.3361120489925327 36.3326565313870304
 22.8260340567338389 21.6522715172172191 14.1577878733769023
 22.8260340567338389 21.6522715172172191 16.9296464556281663
 22.8260340567338389 21.6522715172172191 19.7015050378794356
 22.8260340567338389 21.6522715172172191 22.4733636201307014
 22.8260340567338389 21.6522715172172191 25.2452222023819672
 22.8260340567338389 21.6522715172172191 28.0170807846332330
 22.8260340567338389 21.6522715172172191 30.7889393668844988
 22.8260340567338389 21.6522715172172191 33.5607979491357682
 22.8260340567338389 21.6522715172172191 36.3326565313870304
 25.6479909917751243 21.6522715172172155 14.1577878733769023
 25.6479909917751243 21.6522715172172155 16.9296464556281663
 25.6479909917751243 21.6522715172172155 19.7015050378794356
 25.6479909917751243 21.6522715172172155 22.4733636201307014
 25.6479909917751243 21.6522715172172155 25.2452222023819672
 25.6479909917751243 21.6522715172172155 28.0170807846332330
 25.6479909917751243 21.6522715172172155 30.7889393668844988
 25.6479909917751243 21.6522715172172155 33.5607979491357682
 25.6479909917751243 21.6522715172172155 36.3326565313870304
 28.4699479268164097 21.6522715172172155 14.1577878733769023
 28.4699479268164097 21.6522715172172155 16.9296464556281663
 28.4699479268164097 21.6522715172172155 19.7015050378794356
 28.4699479268164097 21.6522715172172155 22.4733636201307014
 28.4699479268164097 21.6522715172172155 25.2452222023819672
 28.4699479268164097 21.6522715172172155 28.0170807846332330
 28.4699479268164097 21.6522715172172155 30.7889393668844988
 28.4699479268164097 21.6522715172172155 33.5607979491357682
 28.4699479268164097 21.6522715172172155 36.3326565313870304
 31.2919048618576952 21.6522715172172155 14.1577878733769023
 31.2919048618576952 21.6522715172172155 16.9296464556281663
 31.2919048618576952 21.6522715172172155 19.7015050378794356
 31.2919048618576952 21.6522715172172155 22.4733636201307014
 31.2919048618576952 21.6522715172172155 25.2452222023819672
 31.2919048618576952 21.6522715172172155 28.0170807846332330
 31.2919048618576952 21.6522715172172155 30.7889393668844988
 31.2919048618576952 21.6522715172172155 33.5607979491357682
 31.2919048618576952 21.6522715172172155 36.3326565313870304
 32.1639375121796931 24.3361120489925291 14.1577878733769023
 32.1639375121796931 24.3361120489925291 16.9296464556281663
 32.1639375121796931 24.3361120489925291 19.7015050378794356
 32.1639375121796931 24.3361120489925291 22.4733636201307014
 32.1639375121796931 24.3361120489925291 25.2452222023819672
 32.1639375121796931 24.3361120489925291 28.0170807846332330
 32.1639375121796931 24.3361120489925291 30.7889393668844988
 32.1639375121796931 24.3361120489925291 33.5607979491357682
 32.1639375121796931 24.3361120489925291 36.3326565313870304
 33.0359701625016839 27.0199525807678427 14.1577878733769023
 33.0359701625016839 27.0199525807678427 16.9296464556281663
 33.0359701625016839 27.0199525807678427 19.7015050378794356
 33.0359701625016839 27.0199525807678427 22.4733636201307014
 33.0359701625016839 27.0199525807678427 25.2452222023819672
 33.0359701625016839 27.0199525807678427 28.0170807846332330
 33.0359701625016839 27.0199525807678427 30.7889393668844988
 33.0359701625016839 27.0199525807678427 33.5607979491357682
 33.0359701625016839 27.0199525807678427 36.3326565313870304
 36.1910139306663226 30.4455883914489327 15.5437171645025352
 36.1910139306663226 30.4455883914489327 18.3155757467538010
 36.1910139306663226 30.4455883914489327 21.0874343290050668
 36.1910139306663226 30.4455883914489327 23.8592929112563326
 36.1910139306663226 30.4455883914489327 26.6311514935076019
 36.1910139306663226 30.4455883914489327 29.4030100757588642
 36.1910139306663226 30.4455883914489327 32.1748686580101335
 36.1910139306663226 30.4455883914489327 34.9467272402613958
 33.9080028128236819 32.1042930604706669 15.5437171645025352
 33.9080028128236819 32.1042930604706669 18.3155757467538010
 33.9080028128236819 32.1042930604706669 21.0874343290050668
 33.9080028128236819 32.1042930604706669 23.8592929112563326
 33.9080028128236819 32.1042930604706669 26.6311514935076019
 33.9080028128236819 32.1042930604706669 29.4030100757588642
 33.9080028128236819 32.1042930604706669 32.1748686580101335
 33.9080028128236819 32.1042930604706669 34.9467272402613958
 31.6249916949810448 33.7629977294924046 15.5437171645025352
 31.6249916949810448 33.7629977294924046 18.3155757467538010
 31.6249916949810448 33.7629977294924046 21.0874343290050668
 31.6249916949810448 33.7629977294924046 23.8592929112563326
 31.6249916949810448 33.7629977294924046 26.6311514935076019
 31.6249916949810448 33.7629977294924046 29.4030100757588642
 31.6249916949810448 33.7629977294924046 32.1748686580101335
 31.6249916949810448 33.7629977294924046 34.9467272402613958
 29.3419805771384077 35.4217023985141424 15.5437171645025352
 29.3419805771384077 35.4217023985141424 18.3155757467538010
 29.3419805771384077 35.4217023985141424 21.0874343290050668
 29.3419805771384077 35.4217023985141424 23.8592929112563326
 29.3419805771384077 35.4217023985141424 26.6311514935076019
 29.3419805771384077 35.4217023985141424 29.4030100757588642
 29.3419805771384077 35.4217023985141424 32.1748686580101335
 29.3419805771384077 35.4217023985141424 34.9467272402613958
 27.0589694592957670 37.0804070675358801 15.5437171645025352
 27.0589694592957670 37.0804070675358801 18.3155757467538010
 27.0589694592957670 37.0804070675358801 21.0874343290050668
 27.0589694592957670 37.0804070675358801 23.8592929112563326
 27.0589694592957670 37.0804070675358801 26.6311514935076019
 27.0589694592957670 37.0804070675358801 29.4030100757588642
 27.0589694592957670 37.0804070675358801 32.1748686580101335
 27.0589694592957670 37.0804070675358801 34.9467272402613958
 24.7759583414531264 35.4217023985141424 15.5437171645025352
 24.7759583414531264 35.4217023985141424 18.3155757467538010
 24.7759583414531264 35.4217023985141424 21.0874343290050668
 24.7759583414531264 35.4217023985141424 23.8592929112563326
 24.7759583414531264 35.4217023985141424 26.6311514935076019
 24.7759583414531264 35.4217023985141424 29.4030100757588642
 24.7759583414531264 35.4217023985141424 32.1748686580101335
 24.7759583414531264 35.4217023985141424 34.9467272402613958
 22.4929472236104893 33.7629977294924117 15.5437171645025352
 22.4929472236104893 33.7629977294924117 18.3155757467538010
 22.4929472236104893 33.7629977294924117 21.0874343290050668
 22.4929472236104893 33.7629977294924117 23.8592929112563326
 22.4929472236104893 33.7629977294924117 26.6311514935076019
 22.4929472236104893 33.7629977294924117 29.4030100757588642
 22.4929472236104893 33.7629977294924117 32.1748686580101335
 22.4929472236104893 33.7629977294924117 34.9467272402613958
 20.2099361057678486 32.1042930604706740 15.5437171645025352
 20.2099361057678486 32.1042930604706740 18.3155757467538010
 20.2099361057678486 32.1042930604706740 21.0874343290050668
 20.2099361057678486 32.1042930604706740 23.8592929112563326
 20.2099361057678486 32.1042930604706740 26.6311514935076019
 20.2099361057678486 32.1042930604706740 29.4030100757588642
 20.2099361057678486 32.1042930604706740 32.1748686580101335
 20.2099361057678486 32.1042930604706740 34.9467272402613958
 17.9269249879252115 30.4455883914489362 15.5437171645025352
 17.9269249879252115 30.4455883914489362 18.3155757467538010
 17.9269249879252115 30.4455883914489362 21.0874343290050668
 17.9269249879252115 30.4455883914489362 23.8592929112563326
 17.9269249879252115 30.4455883914489362 26.6311514935076019
 17.9269249879252115 30.4455883914489362 29.4030100757588642
 17.9269249879252115 30.4455883914489362 32.1748686580101335
 17.9269249879252115 30.4455883914489362 34.9467272402613958
 18.7989576382472059 27.7617478596736227 15.5437171645025352
 18.7989576382472059 27.7617478596736227 18.3155757467538010
 18.7989576382472059 27.7617478596736227 21.0874343290050668
 18.7989576382472059 27.7617478596736227 23.8592929112563326
 18.7989576382472059 27.7617478596736227 26.6311514935076019
 18.7989576382472059 27.7617478596736227 29.4030100757588642
 18.7989576382472059 27.7617478596736227 32.1748686580101335
 18.7989576382472059 27.7617478596736227 34.9467272402613958
 19.6709902885692003 25.0779073278983091 15.5437171645025352
 19.6709902885692003 25.0779073278983091 18.3155757467538010
 19.6709902885692003 25.0779073278983091 21.0874343290050668
 19.6709902885692003 25.0779073278983091 23.8592929112563326
 19.6709902885692003 25.0779073278983091 26.6311514935076019
 19.6709902885692003 25.0779073278983091 29.4030100757588642
 19.6709902885692003 25.0779073278983091 32.1748686580101335
 19.6709902885692003 25.0779073278983091 34.9467272402613958
 20.5430229388911982 22.3940667961229956 15.5437171645025352
 20.5430229388911982 22.3940667961229956 18.3155757467538010
 20.5430229388911982 22.3940667961229956 21.0874343290050668
 20.5430229388911982 22.3940667961229956 23.8592929112563326
 20.5430229388911982 22.3940667961229956 26.6311514935076019
 20.5430229388911982 22.3940667961229956 29.4030100757588642
 20.5430229388911982 22.3940667961229956 32.1748686580101335
 20.5430229388911982 22.3940667961229956 34.9467272402613958
 21.4150555892131962 19.7102262643476820 15.5437171645025352
 21.4150555892131962 19.7102262643476820 18.3155757467538010
 21.4150555892131962 19.7102262643476820 21.0874343290050668
 21.4150555892131962 19.7102262643476820 23.8592929112563326
 21.4150555892131962 19.7102262643476820 26.6311514935076019
 21.4150555892131962 19.7102262643476820 29.4030100757588642
 21.4150555892131962 19.7102262643476820 32.1748686580101335
 21.4150555892131962 19.7102262643476820 34.9467272402613958
 24.2370125242544816 19.7102262643476820 15.5437171645025352
 24.2370125242544816 19.7102262643476820 18.3155757467538010
 24.2370125242544816 19.7102262643476820 21.0874343290050668
 24.2370125242544816 19.7102262643476820 23.8592929112563326
 24.2370125242544816 19.7102262643476820 26.6311514935076019
 24.2370125242544816 19.7102262643476820 29.4030100757588642
 24.2370125242544816 19.7102262643476820 32.1748686580101335
 24.2370125242544816 19.7102262643476820 34.9467272402613958
 27.0589694592957670 19.7102262643476820 15.5437171645025352
 27.0589694592957670 19.7102262643476820 18.3155757467538010
 27.0589694592957670 19.7102262643476820 21.0874343290050668
 27.0589694592957670 19.7102262643476820 23.8592929112563326
 27.0589694592957670 19.7102262643476820 26.6311514935076019
 27.0589694592957670 19.7102262643476820 29.4030100757588642
 27.0589694592957670 19.7102262643476820 32.1748686580101335
 27.0589694592957670 19.7102262643476820 34.9467272402613958
 29.8809263943370524 19.7102262643476820 15.5437171645025352
 29.8809263943370524 19.7102262643476820 18.3155757467538010
 29.8809263943370524 19.7102262643476820 21.0874343290050668
 29.8809263943370524 19.7102262643476820 23.8592929112563326
 29.8809263943370524 19.7102262643476820 26.6311514935076019
 29.8809263943370524 19.7102262643476820 29.4030100757588642
 29.8809263943370524 19.7102262643476820 32.1748686580101335
 29.8809263943370524 19.7102262643476820 34.9467272402613958
 32.7028833293783379 19.7102262643476820 15.5437171645025352
 32.7028833293783379 19.7102262643476820 18.3155757467538010
 32.7028833293783379 19.7102262643476820 21.0874343290050668
 32.7028833293783379 19.7102262643476820 23.8592929112563326
 32.7028833293783379 19.7102262643476820 26.6311514935076019
 32.7028833293783379 19.7102262643476820 29.4030100757588642
 32.7028833293783379 19.7102262643476820 32.1748686580101335
 32.7028833293783379 19.7102262643476820 34.9467272402613958
 33.5749159797003358 22.3940667961229920 15.5437171645025352
 33.5749159797003358 22.3940667961229920 18.3155757467538010
 33.5749159797003358 22.3940667961229920 21.0874343290050668
 33.5749159797003358 22.3940667961229920 23.8592929112563326
 33.5749159797003358 22.3940667961229920 26.6311514935076019
 33.5749159797003358 22.3940667961229920 29.4030100757588642
 33.5749159797003358 22.3940667961229920 32.1748686580101335
 33.5749159797003358 22.3940667961229920 34.9467272402613958
 34.4469486300223338 25.0779073278983091 15.5437171645025352
 34.4469486300223338 25.0779073278983091 18.3155757467538010
 34.4469486300223338 25.0779073278983091 21.0874343290050668
 34.4469486300223338 25.0779073278983091 23.8592929112563326
 34.4469486300223338 25.0779073278983091 26.6311514935076019
 34.4469486300223338 25.0779073278983091 29.4030100757588642
 34.4469486300223338 25.0779073278983091 32.1748686580101335
 34.4469486300223338 25.0779073278983091 34.9467272402613958
 35.3189812803443317 27.7617478596736191 15.5437171645025352
 35.3189812803443317 27.7617478596736191 18.3155757467538010
 35.3189812803443317 27.7617478596736191 21.0874343290050668
 35.3189812803443317 27.7617478596736191 23.8592929112563326
 35.3189812803443317 27.7617478596736191 26.6311514935076019
 35.3189812803443317 27.7617478596736191 29.4030100757588642
 35.3189812803443317 27.7617478596736191 32.1748686580101335
 35.3189812803443317 27.7617478596736191 34.9467272402613958
 38.4740250485089632 31.1873836703547127 16.9296464556281663
 38.4740250485089632 31.1873836703547127 19.7015050378794356
 38.4740250485089632 31.1873836703547127 22.4733636201307014
 38.4740250485089632 31.1873836703547127 25.2452222023819672
 38.4740250485089632 31.1873836703547127 28.0170807846332330
 38.4740250485089632 31.1873836703547127 30.7889393668844988
 38.4740250485089632 31.1873836703547127 33.5607979491357682
 36.1910139306663226 32.8460883393764504 16.9296464556281663
 36.1910139306663226 32.8460883393764504 19.7015050378794356
 36.1910139306663226 32.8460883393764504 22.4733636201307014
 36.1910139306663226 32.8460883393764504 25.2452222023819672
 36.1910139306663226 32.8460883393764504 28.0170807846332330
 36.1910139306663226 32.8460883393764504 30.7889393668844988
 36.1910139306663226 32.8460883393764504 33.5607979491357682
 33.9080028128236819 34.5047930083981811 16.9296464556281663
 33.9080028128236819 34.5047930083981811 19.7015050378794356
 33.9080028128236819 34.5047930083981811 22.4733636201307014
 33.9080028128236819 34.5047930083981811 25.2452222023819672
 33.9080028128236819 34.5047930083981811 28.0170807846332330
 33.9080028128236819 34.5047930083981811 30.7889393668844988
 33.9080028128236819 34.5047930083981811 33.5607979491357682
 31.6249916949810448 36.1634976774199188 16.9296464556281663
 31.6249916949810448 36.1634976774199188 19.7015050378794356
 31.6249916949810448 36.1634976774199188 22.4733636201307014
 31.6249916949810448 36.1634976774199188 25.2452222023819672