Au 
 1.0000000000000000
    68.6457921133419262    0.0000000000000000    0.0000000000000000
     0.0000000000000000   66.2648975797332298    0.0000000000000000
     0.0000000000000000    0.0000000000000000   54.6199480068933667
 Au 
 1728
Cartesian
 34.3228960566709702 32.2344364665267307 10.0000000000000000
 34.3228960566709702 32.2344364665267307 12.8849956672411139
 34.3228960566709702 32.2344364665267307 15.7699913344822278
 34.3228960566709702 32.2344364665267307 18.6549870017233417
 34.3228960566709702 32.2344364665267307 21.5399826689644556
 34.3228960566709702 32.2344364665267307 24.4249783362055695
 34.3228960566709702 32.2344364665267307 27.3099740034466834
 34.3228960566709702 32.2344364665267307 30.1949696706877972
 34.3228960566709702 32.2344364665267307 33.0799653379289111
 34.3228960566709702 32.2344364665267307 35.9649610051700250
 34.3228960566709702 32.2344364665267307 38.8499566724111389
 34.3228960566709702 32.2344364665267307 41.7349523396522528
 34.3228960566709702 32.2344364665267307 44.6199480068933667
 36.6990913017724907 33.0065091037551923 11.4424978336205569
 36.6990913017724907 33.0065091037551923 14.3274935008616708
 36.6990913017724907 33.0065091037551923 17.2124891681027847
 36.6990913017724907 33.0065091037551923 20.0974848353438986
 36.6990913017724907 33.0065091037551923 22.9824805025850125
 36.6990913017724907 33.0065091037551923 25.8674761698261264
 36.6990913017724907 33.0065091037551923 28.7524718370672403
 36.6990913017724907 33.0065091037551923 31.6374675043083542
 36.6990913017724907 33.0065091037551923 34.5224631715494681
 36.6990913017724907 33.0065091037551923 37.4074588387905820
 36.6990913017724907 33.0065091037551923 40.2924545060316959
 36.6990913017724907 33.0065091037551923 43.1774501732728098
 34.3228960566709702 34.7329160041655740 11.4424978336205569
 34.3228960566709702 34.7329160041655740 14.3274935008616708
 34.3228960566709702 34.7329160041655740 17.2124891681027847
 34.3228960566709702 34.7329160041655740 20.0974848353438986
 34.3228960566709702 34.7329160041655740 22.9824805025850125
 34.3228960566709702 34.7329160041655740 25.8674761698261264
 34.3228960566709702 34.7329160041655740 28.7524718370672403
 34.3228960566709702 34.7329160041655740 31.6374675043083542
 34.3228960566709702 34.7329160041655740 34.5224631715494681
 34.3228960566709702 34.7329160041655740 37.4074588387905820
 34.3228960566709702 34.7329160041655740 40.2924545060316959
 34.3228960566709702 34.7329160041655740 43.1774501732728098
 31.9467008115694462 33.0065091037551923 11.4424978336205569
 31.9467008115694462 33.0065091037551923 14.3274935008616708
 31.9467008115694462 33.0065091037551923 17.2124891681027847
 31.9467008115694462 33.0065091037551923 20.0974848353438986
 31.9467008115694462 33.0065091037551923 22.9824805025850125
 31.9467008115694462 33.0065091037551923 25.8674761698261264
 31.9467008115694462 33.0065091037551923 28.7524718370672403
 31.9467008115694462 33.0065091037551923 31.6374675043083542
 31.9467008115694462 33.0065091037551923 34.5224631715494681
 31.9467008115694462 33.0065091037551923 37.4074588387905820
 31.9467008115694462 33.0065091037551923 40.2924545060316959
 31.9467008115694462 33.0065091037551923 43.1774501732728098
 32.8543266312923450 30.2131240604788474 11.4424978336205569
 32.8543266312923450 30.2131240604788474 14.3274935008616708
 32.8543266312923450 30.2131240604788474 17.2124891681027847
 32.8543266312923450 30.2131240604788474 20.0974848353438986
 32.8543266312923450 30.2131240604788474 22.9824805025850125
 32.8543266312923450 30.2131240604788474 25.8674761698261264
 32.8543266312923450 30.2131240604788474 28.7524718370672403
 32.8543266312923450 30.2131240604788474 31.6374675043083542
 32.8543266312923450 30.2131240604788474 34.5224631715494681
 32.8543266312923450 30.2131240604788474 37.4074588387905820
 32.8543266312923450 30.2131240604788474 40.2924545060316959
 32.8543266312923450 30.2131240604788474 43.1774501732728098
 35.7914654820495954 30.2131240604788474 11.4424978336205569
 35.7914654820495954 30.2131240604788474 14.3274935008616708
 35.7914654820495954 30.2131240604788474 17.2124891681027847
 35.7914654820495954 30.2131240604788474 20.0974848353438986
 35.7914654820495954 30.2131240604788474 22.9824805025850125
 35.7914654820495954 30.2131240604788474 25.8674761698261264
 35.7914654820495954 30.2131240604788474 28.7524718370672403
 35.7914654820495954 30.2131240604788474 31.6374675043083542
 35.7914654820495954 30.2131240604788474 34.5224631715494681
 35.7914654820495954 30.2131240604788474 37.4074588387905820
 35.7914654820495954 30.2131240604788474 40.2924545060316959
 35.7914654820495954 30.2131240604788474 43.1774501732728098
 39.0752865468740183 33.7785817409836540 12.8849956672411139
 39.0752865468740183 33.7785817409836540 15.7699913344822278
 39.0752865468740183 33.7785817409836540 18.6549870017233417
 39.0752865468740183 33.7785817409836540 21.5399826689644556
 39.0752865468740183 33.7785817409836540 24.4249783362055695
 39.0752865468740183 33.7785817409836540 27.3099740034466834
 39.0752865468740183 33.7785817409836540 30.1949696706877972
 39.0752865468740183 33.7785817409836540 33.0799653379289111
 39.0752865468740183 33.7785817409836540 35.9649610051700250
 39.0752865468740183 33.7785817409836540 38.8499566724111389
 39.0752865468740183 33.7785817409836540 41.7349523396522528
 36.6990913017724907 35.5049886413940357 12.8849956672411139
 36.6990913017724907 35.5049886413940357 15.7699913344822278
 36.6990913017724907 35.5049886413940357 18.6549870017233417
 36.6990913017724907 35.5049886413940357 21.5399826689644556
 36.6990913017724907 35.5049886413940357 24.4249783362055695
 36.6990913017724907 35.5049886413940357 27.3099740034466834
 36.6990913017724907 35.5049886413940357 30.1949696706877972
 36.6990913017724907 35.5049886413940357 33.0799653379289111
 36.6990913017724907 35.5049886413940357 35.9649610051700250
 36.6990913017724907 35.5049886413940357 38.8499566724111389
 36.6990913017724907 35.5049886413940357 41.7349523396522528
 34.3228960566709702 37.2313955418044173 12.8849956672411139
 34.3228960566709702 37.2313955418044173 15.7699913344822278
 34.3228960566709702 37.2313955418044173 18.6549870017233417
 34.3228960566709702 37.2313955418044173 21.5399826689644556
 34.3228960566709702 37.2313955418044173 24.4249783362055695
 34.3228960566709702 37.2313955418044173 27.3099740034466834
 34.3228960566709702 37.2313955418044173 30.1949696706877972
 34.3228960566709702 37.2313955418044173 33.0799653379289111
 34.3228960566709702 37.2313955418044173 35.9649610051700250
 34.3228960566709702 37.2313955418044173 38.8499566724111389
 34.3228960566709702 37.2313955418044173 41.7349523396522528
 31.9467008115694462 35.5049886413940357 12.8849956672411139
 31.9467008115694462 35.5049886413940357 15.7699913344822278
 31.9467008115694462 35.5049886413940357 18.6549870017233417
 31.9467008115694462 35.5049886413940357 21.5399826689644556
 31.9467008115694462 35.5049886413940357 24.4249783362055695
 31.9467008115694462 35.5049886413940357 27.3099740034466834
 31.9467008115694462 35.5049886413940357 30.1949696706877972
 31.9467008115694462 35.5049886413940357 33.0799653379289111
 31.9467008115694462 35.5049886413940357 35.9649610051700250
 31.9467008115694462 35.5049886413940357 38.8499566724111389
 31.9467008115694462 35.5049886413940357 41.7349523396522528
 29.5705055664679257 33.7785817409836540 12.8849956672411139
 29.5705055664679257 33.7785817409836540 15.7699913344822278
 29.5705055664679257 33.7785817409836540 18.6549870017233417
 29.5705055664679257 33.7785817409836540 21.5399826689644556
 29.5705055664679257 33.7785817409836540 24.4249783362055695
 29.5705055664679257 33.7785817409836540 27.3099740034466834
 29.5705055664679257 33.7785817409836540 30.1949696706877972
 29.5705055664679257 33.7785817409836540 33.0799653379289111
 29.5705055664679257 33.7785817409836540 35.9649610051700250
 29.5705055664679257 33.7785817409836540 38.8499566724111389
 29.5705055664679257 33.7785817409836540 41.7349523396522528
 30.4781313861908174 30.9851966977073090 12.8849956672411139
 30.4781313861908174 30.9851966977073090 15.7699913344822278
 30.4781313861908174 30.9851966977073090 18.6549870017233417
 30.4781313861908174 30.9851966977073090 21.5399826689644556
 30.4781313861908174 30.9851966977073090 24.4249783362055695
 30.4781313861908174 30.9851966977073090 27.3099740034466834
 30.4781313861908174 30.9851966977073090 30.1949696706877972
 30.4781313861908174 30.9851966977073090 33.0799653379289111
 30.4781313861908174 30.9851966977073090 35.9649610051700250
 30.4781313861908174 30.9851966977073090 38.8499566724111389
 30.4781313861908174 30.9851966977073090 41.7349523396522528
 31.3857572059137127 28.1918116544309640 12.8849956672411139
 31.3857572059137127 28.1918116544309640 15.7699913344822278
 31.3857572059137127 28.1918116544309640 18.6549870017233417
 31.3857572059137127 28.1918116544309640 21.5399826689644556
 31.3857572059137127 28.1918116544309640 24.4249783362055695
 31.3857572059137127 28.1918116544309640 27.3099740034466834
 31.3857572059137127 28.1918116544309640 30.1949696706877972
 31.3857572059137127 28.1918116544309640 33.0799653379289111
 31.3857572059137127 28.1918116544309640 35.9649610051700250
 31.3857572059137127 28.1918116544309640 38.8499566724111389
 31.3857572059137127 28.1918116544309640 41.7349523396522528
 34.3228960566709702 28.1918116544309640 12.8849956672411139
 34.3228960566709702 28.1918116544309640 15.7699913344822278
 34.3228960566709702 28.1918116544309640 18.6549870017233417
 34.3228960566709702 28.1918116544309640 21.5399826689644556
 34.3228960566709702 28.1918116544309640 24.4249783362055695
 34.3228960566709702 28.1918116544309640 27.3099740034466834
 34.3228960566709702 28.1918116544309640 30.1949696706877972
 34.3228960566709702 28.1918116544309640 33.0799653379289111
 34.3228960566709702 28.1918116544309640 35.9649610051700250
 34.3228960566709702 28.1918116544309640 38.8499566724111389
 34.3228960566709702 28.1918116544309640 41.7349523396522528
 37.2600349074282278 28.1918116544309640 12.8849956672411139
 37.2600349074282278 28.1918116544309640 15.7699913344822278
 37.2600349074282278 28.1918116544309640 18.6549870017233417
 37.2600349074282278 28.1918116544309640 21.5399826689644556
 37.2600349074282278 28.1918116544309640 24.4249783362055695
 37.2600349074282278 28.1918116544309640 27.3099740034466834
 37.2600349074282278 28.1918116544309640 30.1949696706877972
 37.2600349074282278 28.1918116544309640 33.0799653379289111
 37.2600349074282278 28.1918116544309640 35.9649610051700250
 37.2600349074282278 28.1918116544309640 38.8499566724111389
 37.2600349074282278 28.1918116544309640 41.7349523396522528
 38.1676607271511230 30.9851966977073090 12.8849956672411139
 38.1676607271511230 30.9851966977073090 15.7699913344822278
 38.1676607271511230 30.9851966977073090 18.6549870017233417
 38.1676607271511230 30.9851966977073090 21.5399826689644556
 38.1676607271511230 30.9851966977073090 24.4249783362055695
 38.1676607271511230 30.9851966977073090 27.3099740034466834
 38.1676607271511230 30.9851966977073090 30.1949696706877972
 38.1676607271511230 30.9851966977073090 33.0799653379289111
 38.1676607271511230 30.9851966977073090 35.9649610051700250
 38.1676607271511230 30.9851966977073090 38.8499566724111389
 38.1676607271511230 30.9851966977073090 41.7349523396522528
 41.4514817919755387 34.5506543782121156 14.3274935008616708
 41.4514817919755387 34.5506543782121156 17.2124891681027847
 41.4514817919755387 34.5506543782121156 20.0974848353438986
 41.4514817919755387 34.5506543782121156 22.9824805025850125
 41.4514817919755387 34.5506543782121156 25.8674761698261264
 41.4514817919755387 34.5506543782121156 28.7524718370672403
 41.4514817919755387 34.5506543782121156 31.6374675043083542
 41.4514817919755387 34.5506543782121156 34.5224631715494681
 41.4514817919755387 34.5506543782121156 37.4074588387905820
 41.4514817919755387 34.5506543782121156 40.2924545060316959
 39.0752865468740183 36.2770612786224973 14.3274935008616708
 39.0752865468740183 36.2770612786224973 17.2124891681027847
 39.0752865468740183 36.2770612786224973 20.0974848353438986
 39.0752865468740183 36.2770612786224973 22.9824805025850125
 39.0752865468740183 36.2770612786224973 25.8674761698261264
 39.0752865468740183 36.2770612786224973 28.7524718370672403
 39.0752865468740183 36.2770612786224973 31.6374675043083542
 39.0752865468740183 36.2770612786224973 34.5224631715494681
 39.0752865468740183 36.2770612786224973 37.4074588387905820
 39.0752865468740183 36.2770612786224973 40.2924545060316959
 36.6990913017724907 38.0034681790328790 14.3274935008616708
 36.6990913017724907 38.0034681790328790 17.2124891681027847
 36.6990913017724907 38.0034681790328790 20.0974848353438986
 36.6990913017724907 38.0034681790328790 22.9824805025850125
 36.6990913017724907 38.0034681790328790 25.8674761698261264
 36.6990913017724907 38.0034681790328790 28.7524718370672403
 36.6990913017724907 38.0034681790328790 31.6374675043083542
 36.6990913017724907 38.0034681790328790 34.5224631715494681
 36.6990913017724907 38.0034681790328790 37.4074588387905820
 36.6990913017724907 38.0034681790328790 40.2924545060316959
 34.3228960566709702 39.7298750794432536 14.3274935008616708
 34.3228960566709702 39.7298750794432536 17.2124891681027847
 34.3228960566709702 39.7298750794432536 20.0974848353438986
 34.3228960566709702 39.7298750794432536 22.9824805025850125
 34.3228960566709702 39.7298750794432536 25.8674761698261264
 34.3228960566709702 39.7298750794432536 28.7524718370672403
 34.3228960566709702 39.7298750794432536 31.6374675043083542
 34.3228960566709702 39.7298750794432536 34.5224631715494681
 34.3228960566709702 39.7298750794432536 37.4074588387905820
 34.3228960566709702 39.7298750794432536 40.2924545060316959
 31.9467008115694497 38.0034681790328790 14.3274935008616708
 31.9467008115694497 38.0034681790328790 17.2124891681027847
 31.9467008115694497 38.0034681790328790 20.0974848353438986
 31.9467008115694497 38.0034681790328790 22.9824805025850125
 31.9467008115694497 38.0034681790328790 25.8674761698261264
 31.9467008115694497 38.0034681790328790 28.7524718370672403
 31.9467008115694497 38.0034681790328790 31.6374675043083542
 31.9467008115694497 38.0034681790328790 34.5224631715494681
 31.9467008115694497 38.0034681790328790 37.4074588387905820
 31.9467008115694497 38.0034681790328790 40.2924545060316959
 29.5705055664679257 36.2770612786224973 14.3274935008616708
 29.5705055664679257 36.2770612786224973 17.2124891681027847
 29.5705055664679257 36.2770612786224973 20.0974848353438986
 29.5705055664679257 36.2770612786224973 22.9824805025850125
 29.5705055664679257 36.2770612786224973 25.8674761698261264
 29.5705055664679257 36.2770612786224973 28.7524718370672403
 29.5705055664679257 36.2770612786224973 31.6374675043083542
 29.5705055664679257 36.2770612786224973 34.5224631715494681
 29.5705055664679257 36.2770612786224973 37.4074588387905820
 29.5705055664679257 36.2770612786224973 40.2924545060316959
 27.1943103213664017 34.5506543782121227 14.3274935008616708
 27.1943103213664017 34.5506543782121227 17.2124891681027847
 27.1943103213664017 34.5506543782121227 20.0974848353438986
 27.1943103213664017 34.5506543782121227 22.9824805025850125
 27.1943103213664017 34.5506543782121227 25.8674761698261264
 27.1943103213664017 34.5506543782121227 28.7524718370672403
 27.1943103213664017 34.5506543782121227 31.6374675043083542
 27.1943103213664017 34.5506543782121227 34.5224631715494681
 27.1943103213664017 34.5506543782121227 37.4074588387905820
 27.1943103213664017 34.5506543782121227 40.2924545060316959
 28.1019361410892969 31.7572693349357742 14.3274935008616708
 28.1019361410892969 31.7572693349357742 17.2124891681027847
 28.1019361410892969 31.7572693349357742 20.0974848353438986
 28.1019361410892969 31.7572693349357742 22.9824805025850125
 28.1019361410892969 31.7572693349357742 25.8674761698261264
 28.1019361410892969 31.7572693349357742 28.7524718370672403
 28.1019361410892969 31.7572693349357742 31.6374675043083542
 28.1019361410892969 31.7572693349357742 34.5224631715494681
 28.1019361410892969 31.7572693349357742 37.4074588387905820
 28.1019361410892969 31.7572693349357742 40.2924545060316959
 29.0095619608121922 28.9638842916594257 14.3274935008616708
 29.0095619608121922 28.9638842916594257 17.2124891681027847
 29.0095619608121922 28.9638842916594257 20.0974848353438986
 29.0095619608121922 28.9638842916594257 22.9824805025850125
 29.0095619608121922 28.9638842916594257 25.8674761698261264
 29.0095619608121922 28.9638842916594257 28.7524718370672403
 29.0095619608121922 28.9638842916594257 31.6374675043083542
 29.0095619608121922 28.9638842916594257 34.5224631715494681
 29.0095619608121922 28.9638842916594257 37.4074588387905820
 29.0095619608121922 28.9638842916594257 40.2924545060316959
 29.9171877805350874 26.1704992483830807 14.3274935008616708
 29.9171877805350874 26.1704992483830807 17.2124891681027847
 29.9171877805350874 26.1704992483830807 20.0974848353438986
 29.9171877805350874 26.1704992483830807 22.9824805025850125
 29.9171877805350874 26.1704992483830807 25.8674761698261264
 29.9171877805350874 26.1704992483830807 28.7524718370672403
 29.9171877805350874 26.1704992483830807 31.6374675043083542
 29.9171877805350874 26.1704992483830807 34.5224631715494681
 29.9171877805350874 26.1704992483830807 37.4074588387905820
 29.9171877805350874 26.1704992483830807 40.2924545060316959
 32.8543266312923379 26.1704992483830807 14.3274935008616708
 32.8543266312923379 26.1704992483830807 17.2124891681027847
 32.8543266312923379 26.1704992483830807 20.0974848353438986
 32.8543266312923379 26.1704992483830807 22.9824805025850125
 32.8543266312923379 26.1704992483830807 25.8674761698261264
 32.8543266312923379 26.1704992483830807 28.7524718370672403
 32.8543266312923379 26.1704992483830807 31.6374675043083542
 32.8543266312923379 26.1704992483830807 34.5224631715494681
 32.8543266312923379 26.1704992483830807 37.4074588387905820
 32.8543266312923379 26.1704992483830807 40.2924545060316959
 35.7914654820495954 26.1704992483830807 14.3274935008616708
 35.7914654820495954 26.1704992483830807 17.2124891681027847
 35.7914654820495954 26.1704992483830807 20.0974848353438986
 35.7914654820495954 26.1704992483830807 22.9824805025850125
 35.7914654820495954 26.1704992483830807 25.8674761698261264
 35.7914654820495954 26.1704992483830807 28.7524718370672403
 35.7914654820495954 26.1704992483830807 31.6374675043083542
 35.7914654820495954 26.1704992483830807 34.5224631715494681
 35.7914654820495954 26.1704992483830807 37.4074588387905820
 35.7914654820495954 26.1704992483830807 40.2924545060316959
 38.7286043328068530 26.1704992483830772 14.3274935008616708
 38.7286043328068530 26.1704992483830772 17.2124891681027847
 38.7286043328068530 26.1704992483830772 20.0974848353438986
 38.7286043328068530 26.1704992483830772 22.9824805025850125
 38.7286043328068530 26.1704992483830772 25.8674761698261264
 38.7286043328068530 26.1704992483830772 28.7524718370672403
 38.7286043328068530 26.1704992483830772 31.6374675043083542
 38.7286043328068530 26.1704992483830772 34.5224631715494681
 38.7286043328068530 26.1704992483830772 37.4074588387905820
 38.7286043328068530 26.1704992483830772 40.2924545060316959
 39.6362301525297482 28.9638842916594257 14.3274935008616708
 39.6362301525297482 28.9638842916594257 17.2124891681027847
 39.6362301525297482 28.9638842916594257 20.0974848353438986
 39.6362301525297482 28.9638842916594257 22.9824805025850125
 39.6362301525297482 28.9638842916594257 25.8674761698261264
 39.6362301525297482 28.9638842916594257 28.7524718370672403
 39.6362301525297482 28.9638842916594257 31.6374675043083542
 39.6362301525297482 28.9638842916594257 34.5224631715494681
 39.6362301525297482 28.9638842916594257 37.4074588387905820
 39.6362301525297482 28.9638842916594257 40.2924545060316959
 40.5438559722526435 31.7572693349357706 14.3274935008616708
 40.5438559722526435 31.7572693349357706 17.2124891681027847
 40.5438559722526435 31.7572693349357706 20.0974848353438986
 40.5438559722526435 31.7572693349357706 22.9824805025850125
 40.5438559722526435 31.7572693349357706 25.8674761698261264
 40.5438559722526435 31.7572693349357706 28.7524718370672403
 40.5438559722526435 31.7572693349357706 31.6374675043083542
 40.5438559722526435 31.7572693349357706 34.5224631715494681
 40.5438559722526435 31.7572693349357706 37.4074588387905820
 40.5438559722526435 31.7572693349357706 40.2924545060316959
 43.8276770370770592 35.3227270154405772 15.7699913344822278
 43.8276770370770592 35.3227270154405772 18.6549870017233417
 43.8276770370770592 35.3227270154405772 21.5399826689644556
 43.8276770370770592 35.3227270154405772 24.4249783362055695
 43.8276770370770592 35.3227270154405772 27.3099740034466834
 43.8276770370770592 35.3227270154405772 30.1949696706877972
 43.8276770370770592 35.3227270154405772 33.0799653379289111
 43.8276770370770592 35.3227270154405772 35.9649610051700250
 43.8276770370770592 35.3227270154405772 38.8499566724111389
 41.4514817919755387 37.0491339158509589 15.7699913344822278
 41.4514817919755387 37.0491339158509589 18.6549870017233417
 41.4514817919755387 37.0491339158509589 21.5399826689644556
 41.4514817919755387 37.0491339158509589 24.4249783362055695
 41.4514817919755387 37.0491339158509589 27.3099740034466834
 41.4514817919755387 37.0491339158509589 30.1949696706877972
 41.4514817919755387 37.0491339158509589 33.0799653379289111
 41.4514817919755387 37.0491339158509589 35.9649610051700250
 41.4514817919755387 37.0491339158509589 38.8499566724111389
 39.0752865468740183 38.7755408162613406 15.7699913344822278
 39.0752865468740183 38.7755408162613406 18.6549870017233417
 39.0752865468740183 38.7755408162613406 21.5399826689644556
 39.0752865468740183 38.7755408162613406 24.4249783362055695
 39.0752865468740183 38.7755408162613406 27.3099740034466834
 39.0752865468740183 38.7755408162613406 30.1949696706877972
 39.0752865468740183 38.7755408162613406 33.0799653379289111
 39.0752865468740183 38.7755408162613406 35.9649610051700250
 39.0752865468740183 38.7755408162613406 38.8499566724111389
 36.6990913017724907 40.5019477166717223 15.7699913344822278
 36.6990913017724907 40.5019477166717223 18.6549870017233417
 36.6990913017724907 40.5019477166717223 21.5399826689644556
 36.6990913017724907 40.5019477166717223 24.4249783362055695
 36.6990913017724907 40.5019477166717223 27.3099740034466834
 36.6990913017724907 40.5019477166717223 30.1949696706877972
 36.6990913017724907 40.5019477166717223 33.0799653379289111
 36.6990913017724907 40.5019477166717223 35.9649610051700250
 36.6990913017724907 40.5019477166717223 38.8499566724111389
 34.3228960566709702 42.2283546170820969 15.7699913344822278
 34.3228960566709702 42.2283546170820969 18.6549870017233417
 34.3228960566709702 42.2283546170820969 21.5399826689644556
 34.3228960566709702 42.2283546170820969 24.4249783362055695
 34.3228960566709702 42.2283546170820969 27.3099740034466834
 34.3228960566709702 42.2283546170820969 30.1949696706877972
 34.3228960566709702 42.2283546170820969 33.0799653379289111
 34.3228960566709702 42.2283546170820969 35.9649610051700250
 34.3228960566709702 42.2283546170820969 38.8499566724111389
 31.9467008115694497 40.5019477166717223 15.7699913344822278
 31.9467008115694497 40.5019477166717223 18.6549870017233417
 31.9467008115694497 40.5019477166717223 21.5399826689644556
 31.9467008115694497 40.5019477166717223 24.4249783362055695
 31.9467008115694497 40.5019477166717223 27.3099740034466834
 31.9467008115694497 40.5019477166717223 30.1949696706877972
 31.9467008115694497 40.5019477166717223 33.0799653379289111
 31.9467008115694497 40.5019477166717223 35.9649610051700250
 31.9467008115694497 40.5019477166717223 38.8499566724111389
 29.5705055664679257 38.7755408162613406 15.7699913344822278
 29.5705055664679257 38.7755408162613406 18.6549870017233417
 29.5705055664679257 38.7755408162613406 21.5399826689644556
 29.5705055664679257 38.7755408162613406 24.4249783362055695
 29.5705055664679257 38.7755408162613406 27.3099740034466834
 29.5705055664679257 38.7755408162613406 30.1949696706877972
 29.5705055664679257 38.7755408162613406 33.0799653379289111
 29.5705055664679257 38.7755408162613406 35.9649610051700250
 29.5705055664679257 38.7755408162613406 38.8499566724111389
 27.1943103213664017 37.0491339158509589 15.7699913344822278
 27.1943103213664017 37.0491339158509589 18.6549870017233417
 27.1943103213664017 37.0491339158509589 21.5399826689644556
 27.1943103213664017 37.0491339158509589 24.4249783362055695
 27.1943103213664017 37.0491339158509589 27.3099740034466834
 27.1943103213664017 37.0491339158509589 30.1949696706877972
 27.1943103213664017 37.0491339158509589 33.0799653379289111
 27.1943103213664017 37.0491339158509589 35.9649610051700250
 27.1943103213664017 37.0491339158509589 38.8499566724111389
 24.8181150762648812 35.3227270154405844 15.7699913344822278
 24.8181150762648812 35.3227270154405844 18.6549870017233417
 24.8181150762648812 35.3227270154405844 21.5399826689644556
 24.8181150762648812 35.3227270154405844 24.4249783362055695
 24.8181150762648812 35.3227270154405844 27.3099740034466834
 24.8181150762648812 35.3227270154405844 30.1949696706877972
 24.8181150762648812 35.3227270154405844 33.0799653379289111
 24.8181150762648812 35.3227270154405844 35.9649610051700250
 24.8181150762648812 35.3227270154405844 38.8499566724111389
 25.7257408959877729 32.5293419721642394 15.7699913344822278
 25.7257408959877729 32.5293419721642394 18.6549870017233417
 25.7257408959877729 32.5293419721642394 21.5399826689644556
 25.7257408959877729 32.5293419721642394 24.4249783362055695
 25.7257408959877729 32.5293419721642394 27.3099740034466834
 25.7257408959877729 32.5293419721642394 30.1949696706877972
 25.7257408959877729 32.5293419721642394 33.0799653379289111
 25.7257408959877729 32.5293419721642394 35.9649610051700250
 25.7257408959877729 32.5293419721642394 38.8499566724111389
 26.6333667157106682 29.7359569288878909 15.7699913344822278
 26.6333667157106682 29.7359569288878909 18.6549870017233417
 26.6333667157106682 29.7359569288878909 21.5399826689644556
 26.6333667157106682 29.7359569288878909 24.4249783362055695
 26.6333667157106682 29.7359569288878909 27.3099740034466834
 26.6333667157106682 29.7359569288878909 30.1949696706877972
 26.6333667157106682 29.7359569288878909 33.0799653379289111
 26.6333667157106682 29.7359569288878909 35.9649610051700250
 26.6333667157106682 29.7359569288878909 38.8499566724111389
 27.5409925354335634 26.9425718856115424 15.7699913344822278
 27.5409925354335634 26.9425718856115424 18.6549870017233417
 27.5409925354335634 26.9425718856115424 21.5399826689644556
 27.5409925354335634 26.9425718856115424 24.4249783362055695
 27.5409925354335634 26.9425718856115424 27.3099740034466834
 27.5409925354335634 26.9425718856115424 30.1949696706877972
 27.5409925354335634 26.9425718856115424 33.0799653379289111
 27.5409925354335634 26.9425718856115424 35.9649610051700250
 27.5409925354335634 26.9425718856115424 38.8499566724111389
 28.4486183551564551 24.1491868423351974 15.7699913344822278
 28.4486183551564551 24.1491868423351974 18.6549870017233417
 28.4486183551564551 24.1491868423351974 21.5399826689644556
 28.4486183551564551 24.1491868423351974 24.4249783362055695
 28.4486183551564551 24.1491868423351974 27.3099740034466834
 28.4486183551564551 24.1491868423351974 30.1949696706877972
 28.4486183551564551 24.1491868423351974 33.0799653379289111
 28.4486183551564551 24.1491868423351974 35.9649610051700250
 28.4486183551564551 24.1491868423351974 38.8499566724111389
 31.3857572059137127 24.1491868423351939 15.7699913344822278
 31.3857572059137127 24.1491868423351939 18.6549870017233417
 31.3857572059137127 24.1491868423351939 21.5399826689644556
 31.3857572059137127 24.1491868423351939 24.4249783362055695
 31.3857572059137127 24.1491868423351939 27.3099740034466834
 31.3857572059137127 24.1491868423351939 30.1949696706877972
 31.3857572059137127 24.1491868423351939 33.0799653379289111
 31.3857572059137127 24.1491868423351939 35.9649610051700250
 31.3857572059137127 24.1491868423351939 38.8499566724111389
 34.3228960566709702 24.1491868423351939 15.7699913344822278
 34.3228960566709702 24.1491868423351939 18.6549870017233417
 34.3228960566709702 24.1491868423351939 21.5399826689644556
 34.3228960566709702 24.1491868423351939 24.4249783362055695
 34.3228960566709702 24.1491868423351939 27.3099740034466834
 34.3228960566709702 24.1491868423351939 30.1949696706877972
 34.3228960566709702 24.1491868423351939 33.0799653379289111
 34.3228960566709702 24.1491868423351939 35.9649610051700250
 34.3228960566709702 24.1491868423351939 38.8499566724111389
 37.2600349074282278 24.1491868423351939 15.7699913344822278
 37.2600349074282278 24.1491868423351939 18.6549870017233417
 37.2600349074282278 24.1491868423351939 21.5399826689644556
 37.2600349074282278 24.1491868423351939 24.4249783362055695
 37.2600349074282278 24.1491868423351939 27.3099740034466834
 37.2600349074282278 24.1491868423351939 30.1949696706877972
 37.2600349074282278 24.1491868423351939 33.0799653379289111
 37.2600349074282278 24.1491868423351939 35.9649610051700250
 37.2600349074282278 24.1491868423351939 38.8499566724111389
 40.1971737581854782 24.1491868423351939 15.7699913344822278
 40.1971737581854782 24.1491868423351939 18.6549870017233417
 40.1971737581854782 24.1491868423351939 21.5399826689644556
 40.1971737581854782 24.1491868423351939 24.4249783362055695
 40.1971737581854782 24.1491868423351939 27.3099740034466834
 40.1971737581854782 24.1491868423351939 30.1949696706877972
 40.1971737581854782 24.1491868423351939 33.0799653379289111
 40.1971737581854782 24.1491868423351939 35.9649610051700250
 40.1971737581854782 24.1491868423351939 38.8499566724111389
 41.1047995779083735 26.9425718856115424 15.7699913344822278