Pt 
 1.0000000000000000
    39.6000000000000014    0.0000000000000000    0.0000000000000000
     0.0000000000000000   39.6000000000000014    0.0000000000000000
     0.0000000000000000    0.0000000000000000   39.6000000000000014
 Pt 
 314
Cartesian
 10.0000000000000018 15.8800000000000026 19.8000000000000007
 11.9600000000000009 13.9200000000000017 19.8000000000000007
 11.9600000000000009 15.8800000000000026 17.8400000000000034
 11.9600000000000009 15.8800000000000026 21.7600000000000016
 10.0000000000000018 19.8000000000000007 15.8800000000000026
 11.9600000000000009 17.8400000000000034 15.8800000000000026
 11.9600000000000009 19.8000000000000007 13.9200000000000017
 10.0000000000000018 17.8400000000000034 17.8400000000000034
 10.0000000000000018 19.8000000000000007 19.8000000000000007
 11.9600000000000009 17.8400000000000034 19.8000000000000007
 11.9600000000000009 19.8000000000000007 17.8400000000000034
 10.0000000000000018 17.8400000000000034 21.7600000000000016
 10.0000000000000018 19.8000000000000007 23.7200000000000024
 11.9600000000000009 17.8400000000000034 23.7200000000000024
 11.9600000000000009 19.8000000000000007 21.7600000000000016
 11.9600000000000009 19.8000000000000007 25.6800000000000033
 11.9600000000000009 21.7600000000000016 15.8800000000000026
 10.0000000000000018 21.7600000000000016 17.8400000000000034
 10.0000000000000018 23.7200000000000024 19.8000000000000007
 11.9600000000000009 21.7600000000000016 19.8000000000000007
 11.9600000000000009 23.7200000000000024 17.8400000000000034
 10.0000000000000018 21.7600000000000016 21.7600000000000016
 11.9600000000000009 21.7600000000000016 23.7200000000000024
 11.9600000000000009 23.7200000000000024 21.7600000000000016
 11.9600000000000009 25.6800000000000033 19.8000000000000007
 13.9200000000000017 11.9600000000000009 19.8000000000000007
 15.8800000000000026 10.0000000000000018 19.8000000000000007
 15.8800000000000026 11.9600000000000009 17.8400000000000034
 15.8800000000000026 11.9600000000000009 21.7600000000000016
 13.9200000000000017 15.8800000000000026 15.8800000000000026
 15.8800000000000026 13.9200000000000017 15.8800000000000026
 15.8800000000000026 15.8800000000000026 13.9200000000000017
 13.9200000000000017 13.9200000000000017 17.8400000000000034
 13.9200000000000017 15.8800000000000026 19.8000000000000007
 15.8800000000000026 13.9200000000000017 19.8000000000000007
 15.8800000000000026 15.8800000000000026 17.8400000000000034
 13.9200000000000017 13.9200000000000017 21.7600000000000016
 13.9200000000000017 15.8800000000000026 23.7200000000000024
 15.8800000000000026 13.9200000000000017 23.7200000000000024
 15.8800000000000026 15.8800000000000026 21.7600000000000016
 15.8800000000000026 15.8800000000000026 25.6800000000000033
 13.9200000000000017 19.8000000000000007 11.9600000000000009
 15.8800000000000026 17.8400000000000034 11.9600000000000009
 15.8800000000000026 19.8000000000000007 10.0000000000000018
 13.9200000000000017 17.8400000000000034 13.9200000000000017
 13.9200000000000017 19.8000000000000007 15.8800000000000026
 15.8800000000000026 17.8400000000000034 15.8800000000000026
 15.8800000000000026 19.8000000000000007 13.9200000000000017
 13.9200000000000017 17.8400000000000034 17.8400000000000034
 13.9200000000000017 19.8000000000000007 19.8000000000000007
 15.8800000000000026 17.8400000000000034 19.8000000000000007
 15.8800000000000026 19.8000000000000007 17.8400000000000034
 13.9200000000000017 17.8400000000000034 21.7600000000000016
 13.9200000000000017 19.8000000000000007 23.7200000000000024
 15.8800000000000026 17.8400000000000034 23.7200000000000024
 15.8800000000000026 19.8000000000000007 21.7600000000000016
 13.9200000000000017 17.8400000000000034 25.6800000000000033
 13.9200000000000017 19.8000000000000007 27.6400000000000041
 15.8800000000000026 17.8400000000000034 27.6400000000000041
 15.8800000000000026 19.8000000000000007 25.6800000000000033
 15.8800000000000026 19.8000000000000007 29.6000000000000014
 15.8800000000000026 21.7600000000000016 11.9600000000000009
 13.9200000000000017 21.7600000000000016 13.9200000000000017
 13.9200000000000017 23.7200000000000024 15.8800000000000026
 15.8800000000000026 21.7600000000000016 15.8800000000000026
 15.8800000000000026 23.7200000000000024 13.9200000000000017
 13.9200000000000017 21.7600000000000016 17.8400000000000034
 13.9200000000000017 23.7200000000000024 19.8000000000000007
 15.8800000000000026 21.7600000000000016 19.8000000000000007
 15.8800000000000026 23.7200000000000024 17.8400000000000034
 13.9200000000000017 21.7600000000000016 21.7600000000000016
 13.9200000000000017 23.7200000000000024 23.7200000000000024
 15.8800000000000026 21.7600000000000016 23.7200000000000024
 15.8800000000000026 23.7200000000000024 21.7600000000000016
 13.9200000000000017 21.7600000000000016 25.6800000000000033
 15.8800000000000026 21.7600000000000016 27.6400000000000041
 15.8800000000000026 23.7200000000000024 25.6800000000000033
 15.8800000000000026 25.6800000000000033 15.8800000000000026
 13.9200000000000017 25.6800000000000033 17.8400000000000034
 13.9200000000000017 27.6400000000000041 19.8000000000000007
 15.8800000000000026 25.6800000000000033 19.8000000000000007
 15.8800000000000026 27.6400000000000041 17.8400000000000034
 13.9200000000000017 25.6800000000000033 21.7600000000000016
 15.8800000000000026 25.6800000000000033 23.7200000000000024
 15.8800000000000026 27.6400000000000041 21.7600000000000016
 15.8800000000000026 29.6000000000000014 19.8000000000000007
 17.8400000000000034 11.9600000000000009 15.8800000000000026
 19.8000000000000007 10.0000000000000018 15.8800000000000026
 19.8000000000000007 11.9600000000000009 13.9200000000000017
 17.8400000000000034 10.0000000000000018 17.8400000000000034
 17.8400000000000034 11.9600000000000009 19.8000000000000007
 19.8000000000000007 10.0000000000000018 19.8000000000000007
 19.8000000000000007 11.9600000000000009 17.8400000000000034
 17.8400000000000034 10.0000000000000018 21.7600000000000016
 17.8400000000000034 11.9600000000000009 23.7200000000000024
 19.8000000000000007 10.0000000000000018 23.7200000000000024
 19.8000000000000007 11.9600000000000009 21.7600000000000016
 19.8000000000000007 11.9600000000000009 25.6800000000000033
 17.8400000000000034 15.8800000000000026 11.9600000000000009
 19.8000000000000007 13.9200000000000017 11.9600000000000009
 19.8000000000000007 15.8800000000000026 10.0000000000000018
 17.8400000000000034 13.9200000000000017 13.9200000000000017
 17.8400000000000034 15.8800000000000026 15.8800000000000026
 19.8000000000000007 13.9200000000000017 15.8800000000000026
 19.8000000000000007 15.8800000000000026 13.9200000000000017
 17.8400000000000034 13.9200000000000017 17.8400000000000034
 17.8400000000000034 15.8800000000000026 19.8000000000000007
 19.8000000000000007 13.9200000000000017 19.8000000000000007
 19.8000000000000007 15.8800000000000026 17.8400000000000034
 17.8400000000000034 13.9200000000000017 21.7600000000000016
 17.8400000000000034 15.8800000000000026 23.7200000000000024
 19.8000000000000007 13.9200000000000017 23.7200000000000024
 19.8000000000000007 15.8800000000000026 21.7600000000000016
 17.8400000000000034 13.9200000000000017 25.6800000000000033
 17.8400000000000034 15.8800000000000026 27.6400000000000041
 19.8000000000000007 13.9200000000000017 27.6400000000000041
 19.8000000000000007 15.8800000000000026 25.6800000000000033
 19.8000000000000007 15.8800000000000026 29.6000000000000014
 17.8400000000000034 17.8400000000000034 10.0000000000000018
 17.8400000000000034 19.8000000000000007 11.9600000000000009
 19.8000000000000007 17.8400000000000034 11.9600000000000009
 19.8000000000000007 19.8000000000000007 10.0000000000000018
 17.8400000000000034 17.8400000000000034 13.9200000000000017
 17.8400000000000034 19.8000000000000007 15.8800000000000026
 19.8000000000000007 17.8400000000000034 15.8800000000000026
 19.8000000000000007 19.8000000000000007 13.9200000000000017
 17.8400000000000034 17.8400000000000034 17.8400000000000034
 17.8400000000000034 19.8000000000000007 19.8000000000000007
 19.8000000000000007 17.8400000000000034 19.8000000000000007
 19.8000000000000007 19.8000000000000007 17.8400000000000034
 17.8400000000000034 17.8400000000000034 21.7600000000000016
 17.8400000000000034 19.8000000000000007 23.7200000000000024
 19.8000000000000007 17.8400000000000034 23.7200000000000024
 19.8000000000000007 19.8000000000000007 21.7600000000000016
 17.8400000000000034 17.8400000000000034 25.6800000000000033
 17.8400000000000034 19.8000000000000007 27.6400000000000041
 19.8000000000000007 17.8400000000000034 27.6400000000000041
 19.8000000000000007 19.8000000000000007 25.6800000000000033
 17.8400000000000034 17.8400000000000034 29.6000000000000014
 19.8000000000000007 19.8000000000000007 29.6000000000000014
 17.8400000000000034 21.7600000000000016 10.0000000000000018
 17.8400000000000034 23.7200000000000024 11.9600000000000009
 19.8000000000000007 21.7600000000000016 11.9600000000000009
 19.8000000000000007 23.7200000000000024 10.0000000000000018
 17.8400000000000034 21.7600000000000016 13.9200000000000017
 17.8400000000000034 23.7200000000000024 15.8800000000000026
 19.8000000000000007 21.7600000000000016 15.8800000000000026
 19.8000000000000007 23.7200000000000024 13.9200000000000017
 17.8400000000000034 21.7600000000000016 17.8400000000000034
 17.8400000000000034 23.7200000000000024 19.8000000000000007
 19.8000000000000007 21.7600000000000016 19.8000000000000007
 19.8000000000000007 23.7200000000000024 17.8400000000000034
 17.8400000000000034 21.7600000000000016 21.7600000000000016
 17.8400000000000034 23.7200000000000024 23.7200000000000024
 19.8000000000000007 21.7600000000000016 23.7200000000000024
 19.8000000000000007 23.7200000000000024 21.7600000000000016
 17.8400000000000034 21.7600000000000016 25.6800000000000033
 17.8400000000000034 23.7200000000000024 27.6400000000000041
 19.8000000000000007 21.7600000000000016 27.6400000000000041
 19.8000000000000007 23.7200000000000024 25.6800000000000033
 17.8400000000000034 21.7600000000000016 29.6000000000000014
 19.8000000000000007 23.7200000000000024 29.6000000000000014
 19.8000000000000007 25.6800000000000033 11.9600000000000009
 17.8400000000000034 25.6800000000000033 13.9200000000000017
 17.8400000000000034 27.6400000000000041 15.8800000000000026
 19.8000000000000007 25.6800000000000033 15.8800000000000026
 19.8000000000000007 27.6400000000000041 13.9200000000000017
 17.8400000000000034 25.6800000000000033 17.8400000000000034
 17.8400000000000034 27.6400000000000041 19.8000000000000007
 19.8000000000000007 25.6800000000000033 19.8000000000000007
 19.8000000000000007 27.6400000000000041 17.8400000000000034
 17.8400000000000034 25.6800000000000033 21.7600000000000016
 17.8400000000000034 27.6400000000000041 23.7200000000000024
 19.8000000000000007 25.6800000000000033 23.7200000000000024
 19.8000000000000007 27.6400000000000041 21.7600000000000016
 17.8400000000000034 25.6800000000000033 25.6800000000000033
 19.8000000000000007 25.6800000000000033 27.6400000000000041
 19.8000000000000007 27.6400000000000041 25.6800000000000033
 19.8000000000000007 29.6000000000000014 15.8800000000000026
 17.8400000000000034 29.6000000000000014 17.8400000000000034
 19.8000000000000007 29.6000000000000014 19.8000000000000007
 17.8400000000000034 29.6000000000000014 21.7600000000000016
 19.8000000000000007 29.6000000000000014 23.7200000000000024
 21.7600000000000016 11.9600000000000009 15.8800000000000026
 21.7600000000000016 10.0000000000000018 17.8400000000000034
 21.7600000000000016 11.9600000000000009 19.8000000000000007
 23.7200000000000024 10.0000000000000018 19.8000000000000007
 23.7200000000000024 11.9600000000000009 17.8400000000000034
 21.7600000000000016 10.0000000000000018 21.7600000000000016
 21.7600000000000016 11.9600000000000009 23.7200000000000024
 23.7200000000000024 11.9600000000000009 21.7600000000000016
 21.7600000000000016 15.8800000000000026 11.9600000000000009
 21.7600000000000016 13.9200000000000017 13.9200000000000017
 21.7600000000000016 15.8800000000000026 15.8800000000000026
 23.7200000000000024 13.9200000000000017 15.8800000000000026
 23.7200000000000024 15.8800000000000026 13.9200000000000017
 21.7600000000000016 13.9200000000000017 17.8400000000000034
 21.7600000000000016 15.8800000000000026 19.8000000000000007
 23.7200000000000024 13.9200000000000017 19.8000000000000007
 23.7200000000000024 15.8800000000000026 17.8400000000000034
 21.7600000000000016 13.9200000000000017 21.7600000000000016
 21.7600000000000016 15.8800000000000026 23.7200000000000024
 23.7200000000000024 13.9200000000000017 23.7200000000000024
 23.7200000000000024 15.8800000000000026 21.7600000000000016
 21.7600000000000016 13.9200000000000017 25.6800000000000033
 21.7600000000000016 15.8800000000000026 27.6400000000000041
 23.7200000000000024 15.8800000000000026 25.6800000000000033
 21.7600000000000016 17.8400000000000034 10.0000000000000018
 21.7600000000000016 19.8000000000000007 11.9600000000000009
 23.7200000000000024 17.8400000000000034 11.9600000000000009
 23.7200000000000024 19.8000000000000007 10.0000000000000018
 21.7600000000000016 17.8400000000000034 13.9200000000000017
 21.7600000000000016 19.8000000000000007 15.8800000000000026
 23.7200000000000024 17.8400000000000034 15.8800000000000026
 23.7200000000000024 19.8000000000000007 13.9200000000000017
 21.7600000000000016 17.8400000000000034 17.8400000000000034
 21.7600000000000016 19.8000000000000007 19.8000000000000007
 23.7200000000000024 17.8400000000000034 19.8000000000000007
 23.7200000000000024 19.8000000000000007 17.8400000000000034
 21.7600000000000016 17.8400000000000034 21.7600000000000016
 21.7600000000000016 19.8000000000000007 23.7200000000000024
 23.7200000000000024 17.8400000000000034 23.7200000000000024
 23.7200000000000024 19.8000000000000007 21.7600000000000016
 21.7600000000000016 17.8400000000000034 25.6800000000000033
 21.7600000000000016 19.8000000000000007 27.6400000000000041
 23.7200000000000024 17.8400000000000034 27.6400000000000041
 23.7200000000000024 19.8000000000000007 25.6800000000000033
 21.7600000000000016 17.8400000000000034 29.6000000000000014
 23.7200000000000024 19.8000000000000007 29.6000000000000014
 21.7600000000000016 21.7600000000000016 10.0000000000000018
 21.7600000000000016 23.7200000000000024 11.9600000000000009
 23.7200000000000024 21.7600000000000016 11.9600000000000009
 21.7600000000000016 21.7600000000000016 13.9200000000000017
 21.7600000000000016 23.7200000000000024 15.8800000000000026
 23.7200000000000024 21.7600000000000016 15.8800000000000026
 23.7200000000000024 23.7200000000000024 13.9200000000000017
 21.7600000000000016 21.7600000000000016 17.8400000000000034
 21.7600000000000016 23.7200000000000024 19.8000000000000007
 23.7200000000000024 21.7600000000000016 19.8000000000000007
 23.7200000000000024 23.7200000000000024 17.8400000000000034
 21.7600000000000016 21.7600000000000016 21.7600000000000016
 21.7600000000000016 23.7200000000000024 23.7200000000000024
 23.7200000000000024 21.7600000000000016 23.7200000000000024
 23.7200000000000024 23.7200000000000024 21.7600000000000016
 21.7600000000000016 21.7600000000000016 25.6800000000000033
 21.7600000000000016 23.7200000000000024 27.6400000000000041
 23.7200000000000024 21.7600000000000016 27.6400000000000041
 23.7200000000000024 23.7200000000000024 25.6800000000000033
 21.7600000000000016 21.7600000000000016 29.6000000000000014
 21.7600000000000016 25.6800000000000033 13.9200000000000017
 21.7600000000000016 27.6400000000000041 15.8800000000000026
 23.7200000000000024 25.6800000000000033 15.8800000000000026
 21.7600000000000016 25.6800000000000033 17.8400000000000034
 21.7600000000000016 27.6400000000000041 19.8000000000000007
 23.7200000000000024 25.6800000000000033 19.8000000000000007
 23.7200000000000024 27.6400000000000041 17.8400000000000034
 21.7600000000000016 25.6800000000000033 21.7600000000000016
 21.7600000000000016 27.6400000000000041 23.7200000000000024
 23.7200000000000024 25.6800000000000033 23.7200000000000024
 23.7200000000000024 27.6400000000000041 21.7600000000000016
 21.7600000000000016 25.6800000000000033 25.6800000000000033
 21.7600000000000016 29.6000000000000014 17.8400000000000034
 23.7200000000000024 29.6000000000000014 19.8000000000000007
 21.7600000000000016 29.6000000000000014 21.7600000000000016
 25.6800000000000033 11.9600000000000009 19.8000000000000007
 25.6800000000000033 15.8800000000000026 15.8800000000000026
 25.6800000000000033 13.9200000000000017 17.8400000000000034
 25.6800000000000033 15.8800000000000026 19.8000000000000007
 27.6400000000000041 13.9200000000000017 19.8000000000000007
 27.6400000000000041 15.8800000000000026 17.8400000000000034
 25.6800000000000033 13.9200000000000017 21.7600000000000016
 25.6800000000000033 15.8800000000000026 23.7200000000000024
 27.6400000000000041 15.8800000000000026 21.7600000000000016
 25.6800000000000033 19.8000000000000007 11.9600000000000009
 25.6800000000000033 17.8400000000000034 13.9200000000000017
 25.6800000000000033 19.8000000000000007 15.8800000000000026
 27.6400000000000041 17.8400000000000034 15.8800000000000026
 27.6400000000000041 19.8000000000000007 13.9200000000000017
 25.6800000000000033 17.8400000000000034 17.8400000000000034
 25.6800000000000033 19.8000000000000007 19.8000000000000007
 27.6400000000000041 17.8400000000000034 19.8000000000000007
 27.6400000000000041 19.8000000000000007 17.8400000000000034
 25.6800000000000033 17.8400000000000034 21.7600000000000016
 25.6800000000000033 19.8000000000000007 23.7200000000000024
 27.6400000000000041 17.8400000000000034 23.7200000000000024
 27.6400000000000041 19.8000000000000007 21.7600000000000016
 25.6800000000000033 17.8400000000000034 25.6800000000000033
 25.6800000000000033 19.8000000000000007 27.6400000000000041
 27.6400000000000041 19.8000000000000007 25.6800000000000033
 25.6800000000000033 21.7600000000000016 13.9200000000000017
 25.6800000000000033 23.7200000000000024 15.8800000000000026
 27.6400000000000041 21.7600000000000016 15.8800000000000026
 25.6800000000000033 21.7600000000000016 17.8400000000000034
 25.6800000000000033 23.7200000000000024 19.8000000000000007
 27.6400000000000041 21.7600000000000016 19.8000000000000007
 27.6400000000000041 23.7200000000000024 17.8400000000000034
 25.6800000000000033 21.7600000000000016 21.7600000000000016
 25.6800000000000033 23.7200000000000024 23.7200000000000024
 27.6400000000000041 21.7600000000000016 23.7200000000000024
 27.6400000000000041 23.7200000000000024 21.7600000000000016
 25.6800000000000033 21.7600000000000016 25.6800000000000033
 25.6800000000000033 25.6800000000000033 17.8400000000000034
 25.6800000000000033 27.6400000000000041 19.8000000000000007
 27.6400000000000041 25.6800000000000033 19.8000000000000007
 25.6800000000000033 25.6800000000000033 21.7600000000000016
 29.6000000000000014 15.8800000000000026 19.8000000000000007
 29.6000000000000014 19.8000000000000007 15.8800000000000026
 29.6000000000000014 17.8400000000000034 17.8400000000000034
 29.6000000000000014 19.8000000000000007 19.8000000000000007
 29.6000000000000014 17.8400000000000034 21.7600000000000016
 29.6000000000000014 19.8000000000000007 23.7200000000000024
 29.6000000000000014 21.7600000000000016 17.8400000000000034
 29.6000000000000014 23.7200000000000024 19.8000000000000007
 29.6000000000000014 21.7600000000000016 21.7600000000000016
