Pt 
 1.0000000000000000
    55.8620042192355299    0.0000000000000000    0.0000000000000000
     0.0000000000000000   54.1067928001082379    0.0000000000000000
     0.0000000000000000    0.0000000000000000   47.7185858225126651
 Pt 
 946
Cartesian
 27.9310021096177650 27.4784072758258162 10.0000000000000018
 27.9310021096177650 27.4784072758258162 12.7718585822512676
 27.9310021096177650 27.4784072758258162 15.5437171645025352
 27.9310021096177650 27.4784072758258162 18.3155757467538010
 27.9310021096177650 27.4784072758258162 21.0874343290050668
 27.9310021096177650 27.4784072758258162 23.8592929112563326
 27.9310021096177650 27.4784072758258162 26.6311514935076019
 27.9310021096177650 27.4784072758258162 29.4030100757588642
 27.9310021096177650 27.4784072758258162 32.1748686580101335
 27.9310021096177650 27.4784072758258162 34.9467272402613958
 27.9310021096177650 27.4784072758258162 37.7185858225126651
 30.2140132274604056 28.2202025547315927 11.3859292911256347
 30.2140132274604056 28.2202025547315927 14.1577878733769005
 30.2140132274604056 28.2202025547315927 16.9296464556281663
 30.2140132274604056 28.2202025547315927 19.7015050378794356
 30.2140132274604056 28.2202025547315927 22.4733636201306979
 30.2140132274604056 28.2202025547315927 25.2452222023819672
 30.2140132274604056 28.2202025547315927 28.0170807846332330
 30.2140132274604056 28.2202025547315927 30.7889393668844988
 30.2140132274604056 28.2202025547315927 33.5607979491357611
 30.2140132274604056 28.2202025547315927 36.3326565313870304
 27.9310021096177650 29.8789072237533304 11.3859292911256347
 27.9310021096177650 29.8789072237533304 14.1577878733769005
 27.9310021096177650 29.8789072237533304 16.9296464556281663
 27.9310021096177650 29.8789072237533304 19.7015050378794356
 27.9310021096177650 29.8789072237533304 22.4733636201306979
 27.9310021096177650 29.8789072237533304 25.2452222023819672
 27.9310021096177650 29.8789072237533304 28.0170807846332330
 27.9310021096177650 29.8789072237533304 30.7889393668844988
 27.9310021096177650 29.8789072237533304 33.5607979491357611
 27.9310021096177650 29.8789072237533304 36.3326565313870304
 25.6479909917751243 28.2202025547315962 11.3859292911256347
 25.6479909917751243 28.2202025547315962 14.1577878733769005
 25.6479909917751243 28.2202025547315962 16.9296464556281663
 25.6479909917751243 28.2202025547315962 19.7015050378794356
 25.6479909917751243 28.2202025547315962 22.4733636201306979
 25.6479909917751243 28.2202025547315962 25.2452222023819672
 25.6479909917751243 28.2202025547315962 28.0170807846332330
 25.6479909917751243 28.2202025547315962 30.7889393668844988
 25.6479909917751243 28.2202025547315962 33.5607979491357611
 25.6479909917751243 28.2202025547315962 36.3326565313870304
 26.5200236420971223 25.5363620229562827 11.3859292911256347
 26.5200236420971223 25.5363620229562827 14.1577878733769005
 26.5200236420971223 25.5363620229562827 16.9296464556281663
 26.5200236420971223 25.5363620229562827 19.7015050378794356
 26.5200236420971223 25.5363620229562827 22.4733636201306979
 26.5200236420971223 25.5363620229562827 25.2452222023819672
 26.5200236420971223 25.5363620229562827 28.0170807846332330
 26.5200236420971223 25.5363620229562827 30.7889393668844988
 26.5200236420971223 25.5363620229562827 33.5607979491357611
 26.5200236420971223 25.5363620229562827 36.3326565313870304
 29.3419805771384077 25.5363620229562791 11.3859292911256347
 29.3419805771384077 25.5363620229562791 14.1577878733769005
 29.3419805771384077 25.5363620229562791 16.9296464556281663
 29.3419805771384077 25.5363620229562791 19.7015050378794356
 29.3419805771384077 25.5363620229562791 22.4733636201306979
 29.3419805771384077 25.5363620229562791 25.2452222023819672
 29.3419805771384077 25.5363620229562791 28.0170807846332330
 29.3419805771384077 25.5363620229562791 30.7889393668844988
 29.3419805771384077 25.5363620229562791 33.5607979491357611
 29.3419805771384077 25.5363620229562791 36.3326565313870304
 32.4970243453030463 28.9619978336373727 12.7718585822512676
 32.4970243453030463 28.9619978336373727 15.5437171645025334
 32.4970243453030463 28.9619978336373727 18.3155757467538010
 32.4970243453030463 28.9619978336373727 21.0874343290050668
 32.4970243453030463 28.9619978336373727 23.8592929112563326
 32.4970243453030463 28.9619978336373727 26.6311514935075984
 32.4970243453030463 28.9619978336373727 29.4030100757588642
 32.4970243453030463 28.9619978336373727 32.1748686580101335
 32.4970243453030463 28.9619978336373727 34.9467272402613958
 30.2140132274604056 30.6207025026591069 12.7718585822512676
 30.2140132274604056 30.6207025026591069 15.5437171645025334
 30.2140132274604056 30.6207025026591069 18.3155757467538010
 30.2140132274604056 30.6207025026591069 21.0874343290050668
 30.2140132274604056 30.6207025026591069 23.8592929112563326
 30.2140132274604056 30.6207025026591069 26.6311514935075984
 30.2140132274604056 30.6207025026591069 29.4030100757588642
 30.2140132274604056 30.6207025026591069 32.1748686580101335
 30.2140132274604056 30.6207025026591069 34.9467272402613958
 27.9310021096177650 32.2794071716808446 12.7718585822512676
 27.9310021096177650 32.2794071716808446 15.5437171645025334
 27.9310021096177650 32.2794071716808446 18.3155757467538010
 27.9310021096177650 32.2794071716808446 21.0874343290050668
 27.9310021096177650 32.2794071716808446 23.8592929112563326
 27.9310021096177650 32.2794071716808446 26.6311514935075984
 27.9310021096177650 32.2794071716808446 29.4030100757588642
 27.9310021096177650 32.2794071716808446 32.1748686580101335
 27.9310021096177650 32.2794071716808446 34.9467272402613958
 25.6479909917751243 30.6207025026591069 12.7718585822512676
 25.6479909917751243 30.6207025026591069 15.5437171645025334
 25.6479909917751243 30.6207025026591069 18.3155757467538010
 25.6479909917751243 30.6207025026591069 21.0874343290050668
 25.6479909917751243 30.6207025026591069 23.8592929112563326
 25.6479909917751243 30.6207025026591069 26.6311514935075984
 25.6479909917751243 30.6207025026591069 29.4030100757588642
 25.6479909917751243 30.6207025026591069 32.1748686580101335
 25.6479909917751243 30.6207025026591069 34.9467272402613958
 23.3649798739324872 28.9619978336373727 12.7718585822512676
 23.3649798739324872 28.9619978336373727 15.5437171645025334
 23.3649798739324872 28.9619978336373727 18.3155757467538010
 23.3649798739324872 28.9619978336373727 21.0874343290050668
 23.3649798739324872 28.9619978336373727 23.8592929112563326
 23.3649798739324872 28.9619978336373727 26.6311514935075984
 23.3649798739324872 28.9619978336373727 29.4030100757588642
 23.3649798739324872 28.9619978336373727 32.1748686580101335
 23.3649798739324872 28.9619978336373727 34.9467272402613958
 24.2370125242544816 26.2781573018620591 12.7718585822512676
 24.2370125242544816 26.2781573018620591 15.5437171645025334
 24.2370125242544816 26.2781573018620591 18.3155757467538010
 24.2370125242544816 26.2781573018620591 21.0874343290050668
 24.2370125242544816 26.2781573018620591 23.8592929112563326
 24.2370125242544816 26.2781573018620591 26.6311514935075984
 24.2370125242544816 26.2781573018620591 29.4030100757588642
 24.2370125242544816 26.2781573018620591 32.1748686580101335
 24.2370125242544816 26.2781573018620591 34.9467272402613958
 25.1090451745764796 23.5943167700867455 12.7718585822512676
 25.1090451745764796 23.5943167700867455 15.5437171645025334
 25.1090451745764796 23.5943167700867455 18.3155757467538010
 25.1090451745764796 23.5943167700867455 21.0874343290050668
 25.1090451745764796 23.5943167700867455 23.8592929112563326
 25.1090451745764796 23.5943167700867455 26.6311514935075984
 25.1090451745764796 23.5943167700867455 29.4030100757588642
 25.1090451745764796 23.5943167700867455 32.1748686580101335
 25.1090451745764796 23.5943167700867455 34.9467272402613958
 27.9310021096177650 23.5943167700867455 12.7718585822512676
 27.9310021096177650 23.5943167700867455 15.5437171645025334
 27.9310021096177650 23.5943167700867455 18.3155757467538010
 27.9310021096177650 23.5943167700867455 21.0874343290050668
 27.9310021096177650 23.5943167700867455 23.8592929112563326
 27.9310021096177650 23.5943167700867455 26.6311514935075984
 27.9310021096177650 23.5943167700867455 29.4030100757588642
 27.9310021096177650 23.5943167700867455 32.1748686580101335
 27.9310021096177650 23.5943167700867455 34.9467272402613958
 30.7529590446590504 23.5943167700867455 12.7718585822512676
 30.7529590446590504 23.5943167700867455 15.5437171645025334
 30.7529590446590504 23.5943167700867455 18.3155757467538010
 30.7529590446590504 23.5943167700867455 21.0874343290050668
 30.7529590446590504 23.5943167700867455 23.8592929112563326
 30.7529590446590504 23.5943167700867455 26.6311514935075984
 30.7529590446590504 23.5943167700867455 29.4030100757588642
 30.7529590446590504 23.5943167700867455 32.1748686580101335
 30.7529590446590504 23.5943167700867455 34.9467272402613958
 31.6249916949810483 26.2781573018620591 12.7718585822512676
 31.6249916949810483 26.2781573018620591 15.5437171645025334
 31.6249916949810483 26.2781573018620591 18.3155757467538010
 31.6249916949810483 26.2781573018620591 21.0874343290050668
 31.6249916949810483 26.2781573018620591 23.8592929112563326
 31.6249916949810483 26.2781573018620591 26.6311514935075984
 31.6249916949810483 26.2781573018620591 29.4030100757588642
 31.6249916949810483 26.2781573018620591 32.1748686580101335
 31.6249916949810483 26.2781573018620591 34.9467272402613958
 34.7800354631456798 29.7037931125431491 14.1577878733769005
 34.7800354631456798 29.7037931125431491 16.9296464556281663
 34.7800354631456798 29.7037931125431491 19.7015050378794321
 34.7800354631456798 29.7037931125431491 22.4733636201306979
 34.7800354631456798 29.7037931125431491 25.2452222023819672
 34.7800354631456798 29.7037931125431491 28.0170807846332295
 34.7800354631456798 29.7037931125431491 30.7889393668844988
 34.7800354631456798 29.7037931125431491 33.5607979491357611
 32.4970243453030463 31.3624977815648869 14.1577878733769005
 32.4970243453030463 31.3624977815648869 16.9296464556281663
 32.4970243453030463 31.3624977815648869 19.7015050378794321
 32.4970243453030463 31.3624977815648869 22.4733636201306979
 32.4970243453030463 31.3624977815648869 25.2452222023819672
 32.4970243453030463 31.3624977815648869 28.0170807846332295
 32.4970243453030463 31.3624977815648869 30.7889393668844988
 32.4970243453030463 31.3624977815648869 33.5607979491357611
 30.2140132274604056 33.0212024505866211 14.1577878733769005
 30.2140132274604056 33.0212024505866211 16.9296464556281663
 30.2140132274604056 33.0212024505866211 19.7015050378794321
 30.2140132274604056 33.0212024505866211 22.4733636201306979
 30.2140132274604056 33.0212024505866211 25.2452222023819672
 30.2140132274604056 33.0212024505866211 28.0170807846332295
 30.2140132274604056 33.0212024505866211 30.7889393668844988
 30.2140132274604056 33.0212024505866211 33.5607979491357611
 27.9310021096177650 34.6799071196083588 14.1577878733769005
 27.9310021096177650 34.6799071196083588 16.9296464556281663
 27.9310021096177650 34.6799071196083588 19.7015050378794321
 27.9310021096177650 34.6799071196083588 22.4733636201306979
 27.9310021096177650 34.6799071196083588 25.2452222023819672
 27.9310021096177650 34.6799071196083588 28.0170807846332295
 27.9310021096177650 34.6799071196083588 30.7889393668844988
 27.9310021096177650 34.6799071196083588 33.5607979491357611
 25.6479909917751243 33.0212024505866211 14.1577878733769005
 25.6479909917751243 33.0212024505866211 16.9296464556281663
 25.6479909917751243 33.0212024505866211 19.7015050378794321
 25.6479909917751243 33.0212024505866211 22.4733636201306979
 25.6479909917751243 33.0212024505866211 25.2452222023819672
 25.6479909917751243 33.0212024505866211 28.0170807846332295
 25.6479909917751243 33.0212024505866211 30.7889393668844988
 25.6479909917751243 33.0212024505866211 33.5607979491357611
 23.3649798739324872 31.3624977815648869 14.1577878733769005
 23.3649798739324872 31.3624977815648869 16.9296464556281663
 23.3649798739324872 31.3624977815648869 19.7015050378794321
 23.3649798739324872 31.3624977815648869 22.4733636201306979
 23.3649798739324872 31.3624977815648869 25.2452222023819672
 23.3649798739324872 31.3624977815648869 28.0170807846332295
 23.3649798739324872 31.3624977815648869 30.7889393668844988
 23.3649798739324872 31.3624977815648869 33.5607979491357611
 21.0819687560898466 29.7037931125431527 14.1577878733769005
 21.0819687560898466 29.7037931125431527 16.9296464556281663
 21.0819687560898466 29.7037931125431527 19.7015050378794321
 21.0819687560898466 29.7037931125431527 22.4733636201306979
 21.0819687560898466 29.7037931125431527 25.2452222023819672
 21.0819687560898466 29.7037931125431527 28.0170807846332295
 21.0819687560898466 29.7037931125431527 30.7889393668844988
 21.0819687560898466 29.7037931125431527 33.5607979491357611
 21.9540014064118445 27.0199525807678391 14.1577878733769005
 21.9540014064118445 27.0199525807678391 16.9296464556281663
 21.9540014064118445 27.0199525807678391 19.7015050378794321
 21.9540014064118445 27.0199525807678391 22.4733636201306979
 21.9540014064118445 27.0199525807678391 25.2452222023819672
 21.9540014064118445 27.0199525807678391 28.0170807846332295
 21.9540014064118445 27.0199525807678391 30.7889393668844988
 21.9540014064118445 27.0199525807678391 33.5607979491357611
 22.8260340567338389 24.3361120489925256 14.1577878733769005
 22.8260340567338389 24.3361120489925256 16.9296464556281663
 22.8260340567338389 24.3361120489925256 19.7015050378794321
 22.8260340567338389 24.3361120489925256 22.4733636201306979
 22.8260340567338389 24.3361120489925256 25.2452222023819672
 22.8260340567338389 24.3361120489925256 28.0170807846332295
 22.8260340567338389 24.3361120489925256 30.7889393668844988
 22.8260340567338389 24.3361120489925256 33.5607979491357611
 23.6980667070558368 21.6522715172172120 14.1577878733769005
 23.6980667070558368 21.6522715172172120 16.9296464556281663
 23.6980667070558368 21.6522715172172120 19.7015050378794321
 23.6980667070558368 21.6522715172172120 22.4733636201306979
 23.6980667070558368 21.6522715172172120 25.2452222023819672
 23.6980667070558368 21.6522715172172120 28.0170807846332295
 23.6980667070558368 21.6522715172172120 30.7889393668844988
 23.6980667070558368 21.6522715172172120 33.5607979491357611
 26.5200236420971223 21.6522715172172084 14.1577878733769005
 26.5200236420971223 21.6522715172172084 16.9296464556281663
 26.5200236420971223 21.6522715172172084 19.7015050378794321
 26.5200236420971223 21.6522715172172084 22.4733636201306979
 26.5200236420971223 21.6522715172172084 25.2452222023819672
 26.5200236420971223 21.6522715172172084 28.0170807846332295
 26.5200236420971223 21.6522715172172084 30.7889393668844988
 26.5200236420971223 21.6522715172172084 33.5607979491357611
 29.3419805771384077 21.6522715172172084 14.1577878733769005
 29.3419805771384077 21.6522715172172084 16.9296464556281663
 29.3419805771384077 21.6522715172172084 19.7015050378794321
 29.3419805771384077 21.6522715172172084 22.4733636201306979
 29.3419805771384077 21.6522715172172084 25.2452222023819672
 29.3419805771384077 21.6522715172172084 28.0170807846332295
 29.3419805771384077 21.6522715172172084 30.7889393668844988
 29.3419805771384077 21.6522715172172084 33.5607979491357611
 32.1639375121796931 21.6522715172172084 14.1577878733769005
 32.1639375121796931 21.6522715172172084 16.9296464556281663
 32.1639375121796931 21.6522715172172084 19.7015050378794321
 32.1639375121796931 21.6522715172172084 22.4733636201306979
 32.1639375121796931 21.6522715172172084 25.2452222023819672
 32.1639375121796931 21.6522715172172084 28.0170807846332295
 32.1639375121796931 21.6522715172172084 30.7889393668844988
 32.1639375121796931 21.6522715172172084 33.5607979491357611
 33.0359701625016910 24.3361120489925220 14.1577878733769005
 33.0359701625016910 24.3361120489925220 16.9296464556281663
 33.0359701625016910 24.3361120489925220 19.7015050378794321
 33.0359701625016910 24.3361120489925220 22.4733636201306979
 33.0359701625016910 24.3361120489925220 25.2452222023819672
 33.0359701625016910 24.3361120489925220 28.0170807846332295
 33.0359701625016910 24.3361120489925220 30.7889393668844988
 33.0359701625016910 24.3361120489925220 33.5607979491357611
 33.9080028128236819 27.0199525807678356 14.1577878733769005
 33.9080028128236819 27.0199525807678356 16.9296464556281663
 33.9080028128236819 27.0199525807678356 19.7015050378794321
 33.9080028128236819 27.0199525807678356 22.4733636201306979
 33.9080028128236819 27.0199525807678356 25.2452222023819672
 33.9080028128236819 27.0199525807678356 28.0170807846332295
 33.9080028128236819 27.0199525807678356 30.7889393668844988
 33.9080028128236819 27.0199525807678356 33.5607979491357611
 37.0630465809883205 30.4455883914489256 15.5437171645025334
 37.0630465809883205 30.4455883914489256 18.3155757467538010
 37.0630465809883205 30.4455883914489256 21.0874343290050668
 37.0630465809883205 30.4455883914489256 23.8592929112563326
 37.0630465809883205 30.4455883914489256 26.6311514935075984
 37.0630465809883205 30.4455883914489256 29.4030100757588642
 37.0630465809883205 30.4455883914489256 32.1748686580101335
 34.7800354631456798 32.1042930604706669 15.5437171645025334
 34.7800354631456798 32.1042930604706669 18.3155757467538010
 34.7800354631456798 32.1042930604706669 21.0874343290050668
 34.7800354631456798 32.1042930604706669 23.8592929112563326
 34.7800354631456798 32.1042930604706669 26.6311514935075984
 34.7800354631456798 32.1042930604706669 29.4030100757588642
 34.7800354631456798 32.1042930604706669 32.1748686580101335
 32.4970243453030463 33.7629977294923975 15.5437171645025334
 32.4970243453030463 33.7629977294923975 18.3155757467538010
 32.4970243453030463 33.7629977294923975 21.0874343290050668
 32.4970243453030463 33.7629977294923975 23.8592929112563326
 32.4970243453030463 33.7629977294923975 26.6311514935075984
 32.4970243453030463 33.7629977294923975 29.4030100757588642
 32.4970243453030463 33.7629977294923975 32.1748686580101335
 30.2140132274604056 35.4217023985141353 15.5437171645025334
 30.2140132274604056 35.4217023985141353 18.3155757467538010
 30.2140132274604056 35.4217023985141353 21.0874343290050668
 30.2140132274604056 35.4217023985141353 23.8592929112563326
 30.2140132274604056 35.4217023985141353 26.6311514935075984
 30.2140132274604056 35.4217023985141353 29.4030100757588642
 30.2140132274604056 35.4217023985141353 32.1748686580101335
 27.9310021096177650 37.0804070675358730 15.5437171645025334
 27.9310021096177650 37.0804070675358730 18.3155757467538010
 27.9310021096177650 37.0804070675358730 21.0874343290050668
 27.9310021096177650 37.0804070675358730 23.8592929112563326
 27.9310021096177650 37.0804070675358730 26.6311514935075984
 27.9310021096177650 37.0804070675358730 29.4030100757588642
 27.9310021096177650 37.0804070675358730 32.1748686580101335
 25.6479909917751243 35.4217023985141353 15.5437171645025334
 25.6479909917751243 35.4217023985141353 18.3155757467538010
 25.6479909917751243 35.4217023985141353 21.0874343290050668
 25.6479909917751243 35.4217023985141353 23.8592929112563326
 25.6479909917751243 35.4217023985141353 26.6311514935075984
 25.6479909917751243 35.4217023985141353 29.4030100757588642
 25.6479909917751243 35.4217023985141353 32.1748686580101335
 23.3649798739324872 33.7629977294923975 15.5437171645025334
 23.3649798739324872 33.7629977294923975 18.3155757467538010
 23.3649798739324872 33.7629977294923975 21.0874343290050668
 23.3649798739324872 33.7629977294923975 23.8592929112563326
 23.3649798739324872 33.7629977294923975 26.6311514935075984
 23.3649798739324872 33.7629977294923975 29.4030100757588642
 23.3649798739324872 33.7629977294923975 32.1748686580101335
 21.0819687560898466 32.1042930604706669 15.5437171645025334
 21.0819687560898466 32.1042930604706669 18.3155757467538010
 21.0819687560898466 32.1042930604706669 21.0874343290050668
 21.0819687560898466 32.1042930604706669 23.8592929112563326
 21.0819687560898466 32.1042930604706669 26.6311514935075984
 21.0819687560898466 32.1042930604706669 29.4030100757588642
 21.0819687560898466 32.1042930604706669 32.1748686580101335
 18.7989576382472094 30.4455883914489291 15.5437171645025334
 18.7989576382472094 30.4455883914489291 18.3155757467538010
 18.7989576382472094 30.4455883914489291 21.0874343290050668
 18.7989576382472094 30.4455883914489291 23.8592929112563326
 18.7989576382472094 30.4455883914489291 26.6311514935075984
 18.7989576382472094 30.4455883914489291 29.4030100757588642
 18.7989576382472094 30.4455883914489291 32.1748686580101335
 19.6709902885692038 27.7617478596736156 15.5437171645025334
 19.6709902885692038 27.7617478596736156 18.3155757467538010
 19.6709902885692038 27.7617478596736156 21.0874343290050668
 19.6709902885692038 27.7617478596736156 23.8592929112563326
 19.6709902885692038 27.7617478596736156 26.6311514935075984
 19.6709902885692038 27.7617478596736156 29.4030100757588642
 19.6709902885692038 27.7617478596736156 32.1748686580101335
 20.5430229388911982 25.0779073278983020 15.5437171645025334
 20.5430229388911982 25.0779073278983020 18.3155757467538010
 20.5430229388911982 25.0779073278983020 21.0874343290050668
 20.5430229388911982 25.0779073278983020 23.8592929112563326
 20.5430229388911982 25.0779073278983020 26.6311514935075984
 20.5430229388911982 25.0779073278983020 29.4030100757588642
 20.5430229388911982 25.0779073278983020 32.1748686580101335
 21.4150555892131962 22.3940667961229884 15.5437171645025334
 21.4150555892131962 22.3940667961229884 18.3155757467538010
 21.4150555892131962 22.3940667961229884 21.0874343290050668
 21.4150555892131962 22.3940667961229884 23.8592929112563326
 21.4150555892131962 22.3940667961229884 26.6311514935075984
 21.4150555892131962 22.3940667961229884 29.4030100757588642
 21.4150555892131962 22.3940667961229884 32.1748686580101335
 22.2870882395351941 19.7102262643476749 15.5437171645025334
 22.2870882395351941 19.7102262643476749 18.3155757467538010
 22.2870882395351941 19.7102262643476749 21.0874343290050668
 22.2870882395351941 19.7102262643476749 23.8592929112563326
 22.2870882395351941 19.7102262643476749 26.6311514935075984
 22.2870882395351941 19.7102262643476749 29.4030100757588642
 22.2870882395351941 19.7102262643476749 32.1748686580101335
 25.1090451745764796 19.7102262643476749 15.5437171645025334
 25.1090451745764796 19.7102262643476749 18.3155757467538010
 25.1090451745764796 19.7102262643476749 21.0874343290050668
 25.1090451745764796 19.7102262643476749 23.8592929112563326
 25.1090451745764796 19.7102262643476749 26.6311514935075984
 25.1090451745764796 19.7102262643476749 29.4030100757588642
 25.1090451745764796 19.7102262643476749 32.1748686580101335
 27.9310021096177650 19.7102262643476749 15.5437171645025334
 27.9310021096177650 19.7102262643476749 18.3155757467538010
 27.9310021096177650 19.7102262643476749 21.0874343290050668
 27.9310021096177650 19.7102262643476749 23.8592929112563326
 27.9310021096177650 19.7102262643476749 26.6311514935075984
 27.9310021096177650 19.7102262643476749 29.4030100757588642
 27.9310021096177650 19.7102262643476749 32.1748686580101335
 30.7529590446590504 19.7102262643476749 15.5437171645025334
 30.7529590446590504 19.7102262643476749 18.3155757467538010
 30.7529590446590504 19.7102262643476749 21.0874343290050668
 30.7529590446590504 19.7102262643476749 23.8592929112563326
 30.7529590446590504 19.7102262643476749 26.6311514935075984
 30.7529590446590504 19.7102262643476749 29.4030100757588642
 30.7529590446590504 19.7102262643476749 32.1748686580101335
 33.5749159797003358 19.7102262643476749 15.5437171645025334
 33.5749159797003358 19.7102262643476749 18.3155757467538010
 33.5749159797003358 19.7102262643476749 21.0874343290050668
 33.5749159797003358 19.7102262643476749 23.8592929112563326
 33.5749159797003358 19.7102262643476749 26.6311514935075984
 33.5749159797003358 19.7102262643476749 29.4030100757588642
 33.5749159797003358 19.7102262643476749 32.1748686580101335
 34.4469486300223338 22.3940667961229849 15.5437171645025334
 34.4469486300223338 22.3940667961229849 18.3155757467538010
 34.4469486300223338 22.3940667961229849 21.0874343290050668
 34.4469486300223338 22.3940667961229849 23.8592929112563326
 34.4469486300223338 22.3940667961229849 26.6311514935075984
 34.4469486300223338 22.3940667961229849 29.4030100757588642
 34.4469486300223338 22.3940667961229849 32.1748686580101335
 35.3189812803443317 25.0779073278983020 15.5437171645025334
 35.3189812803443317 25.0779073278983020 18.3155757467538010
 35.3189812803443317 25.0779073278983020 21.0874343290050668
 35.3189812803443317 25.0779073278983020 23.8592929112563326
 35.3189812803443317 25.0779073278983020 26.6311514935075984
 35.3189812803443317 25.0779073278983020 29.4030100757588642
 35.3189812803443317 25.0779073278983020 32.1748686580101335
 36.1910139306663297 27.7617478596736120 15.5437171645025334
 36.1910139306663297 27.7617478596736120 18.3155757467538010
 36.1910139306663297 27.7617478596736120 21.0874343290050668
 36.1910139306663297 27.7617478596736120 23.8592929112563326
 36.1910139306663297 27.7617478596736120 26.6311514935075984
 36.1910139306663297 27.7617478596736120 29.4030100757588642
 36.1910139306663297 27.7617478596736120 32.1748686580101335
 39.3460576988309612 31.1873836703547056 16.9296464556281663
 39.3460576988309612 31.1873836703547056 19.7015050378794356
 39.3460576988309612 31.1873836703547056 22.4733636201306979
 39.3460576988309612 31.1873836703547056 25.2452222023819672
 39.3460576988309612 31.1873836703547056 28.0170807846332330
 39.3460576988309612 31.1873836703547056 30.7889393668844988
 37.0630465809883205 32.8460883393764433 16.9296464556281663
 37.0630465809883205 32.8460883393764433 19.7015050378794356
 37.0630465809883205 32.8460883393764433 22.4733636201306979
 37.0630465809883205 32.8460883393764433 25.2452222023819672
 37.0630465809883205 32.8460883393764433 28.0170807846332330
 37.0630465809883205 32.8460883393764433 30.7889393668844988
 34.7800354631456798 34.5047930083981811 16.9296464556281663
 34.7800354631456798 34.5047930083981811 19.7015050378794356
 34.7800354631456798 34.5047930083981811 22.4733636201306979
 34.7800354631456798 34.5047930083981811 25.2452222023819672
 34.7800354631456798 34.5047930083981811 28.0170807846332330
 34.7800354631456798 34.5047930083981811 30.7889393668844988
 32.4970243453030463 36.1634976774199117 16.9296464556281663
 32.4970243453030463 36.1634976774199117 19.7015050378794356
 32.4970243453030463 36.1634976774199117 22.4733636201306979
 32.4970243453030463 36.1634976774199117 25.2452222023819672
 32.4970243453030463 36.1634976774199117 28.0170807846332330
 32.4970243453030463 36.1634976774199117 30.7889393668844988
 30.2140132274604056 37.8222023464416495 16.9296464556281663
 30.2140132274604056 37.8222023464416495 19.7015050378794356
 30.2140132274604056 37.8222023464416495 22.4733636201306979
 30.2140132274604056 37.8222023464416495 25.2452222023819672
 30.2140132274604056 37.8222023464416495 28.0170807846332330
 30.2140132274604056 37.8222023464416495 30.7889393668844988
 27.9310021096177650 39.4809070154633872 16.9296464556281663
 27.9310021096177650 39.4809070154633872 19.7015050378794356
 27.9310021096177650 39.4809070154633872 22.4733636201306979
 27.9310021096177650 39.4809070154633872 25.2452222023819672
 27.9310021096177650 39.4809070154633872 28.0170807846332330
 27.9310021096177650 39.4809070154633872 30.7889393668844988
 25.6479909917751243 37.8222023464416495 16.9296464556281663
 25.6479909917751243 37.8222023464416495 19.7015050378794356
 25.6479909917751243 37.8222023464416495 22.4733636201306979
 25.6479909917751243 37.8222023464416495 25.2452222023819672
 25.6479909917751243 37.8222023464416495 28.0170807846332330
 25.6479909917751243 37.8222023464416495 30.7889393668844988
 23.3649798739324872 36.1634976774199117 16.9296464556281663
 23.3649798739324872 36.1634976774199117 19.7015050378794356
 23.3649798739324872 36.1634976774199117 22.4733636201306979
 23.3649798739324872 36.1634976774199117 25.2452222023819672
 23.3649798739324872 36.1634976774199117 28.0170807846332330
 23.3649798739324872 36.1634976774199117 30.7889393668844988
 21.0819687560898466 34.5047930083981811 16.9296464556281663
 21.0819687560898466 34.5047930083981811 19.7015050378794356
 21.0819687560898466 34.5047930083981811 22.4733636201306979
 21.0819687560898466 34.5047930083981811 25.2452222023819672
 21.0819687560898466 34.5047930083981811 28.0170807846332330
 21.0819687560898466 34.5047930083981811 30.7889393668844988
 18.7989576382472094 32.8460883393764433 16.9296464556281663
 18.7989576382472094 32.8460883393764433 19.7015050378794356
 18.7989576382472094 32.8460883393764433 22.4733636201306979
 18.7989576382472094 32.8460883393764433 25.2452222023819672
 18.7989576382472094 32.8460883393764433 28.0170807846332330
 18.7989576382472094 32.8460883393764433 30.7889393668844988
 16.5159465204045688 31.1873836703547092 16.9296464556281663
 16.5159465204045688 31.1873836703547092 19.7015050378794356
 16.5159465204045688 31.1873836703547092 22.4733636201306979
 16.5159465204045688 31.1873836703547092 25.2452222023819672
 16.5159465204045688 31.1873836703547092 28.0170807846332330
 16.5159465204045688 31.1873836703547092 30.7889393668844988
 17.3879791707265667 28.5035431385793956 16.9296464556281663
 17.3879791707265667 28.5035431385793956 19.7015050378794356
 17.3879791707265667 28.5035431385793956 22.4733636201306979
 17.3879791707265667 28.5035431385793956 25.2452222023819672
 17.3879791707265667 28.5035431385793956 28.0170807846332330
 17.3879791707265667 28.5035431385793956 30.7889393668844988
 18.2600118210485611 25.8197026068040820 16.9296464556281663
 18.2600118210485611 25.8197026068040820 19.7015050378794356
 18.2600118210485611 25.8197026068040820 22.4733636201306979
 18.2600118210485611 25.8197026068040820 25.2452222023819672