Au 
 1.0000000000000000
    54.3886206427327892    0.0000000000000000    0.0000000000000000
     0.0000000000000000   52.7055217486730498    0.0000000000000000
     0.0000000000000000    0.0000000000000000   57.5049436741344806
 Au 
 1389
Cartesian
 27.1943103213663981 26.1704992483830736 10.0000000000000000
 27.1943103213663981 26.1704992483830736 12.8849956672411139
 27.1943103213663981 26.1704992483830736 15.7699913344822278
 27.1943103213663981 26.1704992483830736 18.6549870017233417
 27.1943103213663981 26.1704992483830736 21.5399826689644556
 27.1943103213663981 26.1704992483830736 24.4249783362055695
 27.1943103213663981 26.1704992483830736 27.3099740034466834
 27.1943103213663981 26.1704992483830736 30.1949696706877972
 27.1943103213663981 26.1704992483830736 33.0799653379289111
 27.1943103213663981 26.1704992483830736 35.9649610051700250
 27.1943103213663981 26.1704992483830736 38.8499566724111389
 27.1943103213663981 26.1704992483830736 41.7349523396522528
 27.1943103213663981 26.1704992483830736 44.6199480068933667
 27.1943103213663981 26.1704992483830736 47.5049436741344806
 29.5705055664679222 26.9425718856115353 11.4424978336205569
 29.5705055664679222 26.9425718856115353 14.3274935008616708
 29.5705055664679222 26.9425718856115353 17.2124891681027847
 29.5705055664679222 26.9425718856115353 20.0974848353438986
 29.5705055664679222 26.9425718856115353 22.9824805025850125
 29.5705055664679222 26.9425718856115353 25.8674761698261264
 29.5705055664679222 26.9425718856115353 28.7524718370672403
 29.5705055664679222 26.9425718856115353 31.6374675043083542
 29.5705055664679222 26.9425718856115353 34.5224631715494681
 29.5705055664679222 26.9425718856115353 37.4074588387905820
 29.5705055664679222 26.9425718856115353 40.2924545060316959
 29.5705055664679222 26.9425718856115353 43.1774501732728098
 29.5705055664679222 26.9425718856115353 46.0624458405139237
 27.1943103213663981 28.6689787860219170 11.4424978336205569
 27.1943103213663981 28.6689787860219170 14.3274935008616708
 27.1943103213663981 28.6689787860219170 17.2124891681027847
 27.1943103213663981 28.6689787860219170 20.0974848353438986
 27.1943103213663981 28.6689787860219170 22.9824805025850125
 27.1943103213663981 28.6689787860219170 25.8674761698261264
 27.1943103213663981 28.6689787860219170 28.7524718370672403
 27.1943103213663981 28.6689787860219170 31.6374675043083542
 27.1943103213663981 28.6689787860219170 34.5224631715494681
 27.1943103213663981 28.6689787860219170 37.4074588387905820
 27.1943103213663981 28.6689787860219170 40.2924545060316959
 27.1943103213663981 28.6689787860219170 43.1774501732728098
 27.1943103213663981 28.6689787860219170 46.0624458405139237
 24.8181150762648741 26.9425718856115353 11.4424978336205569
 24.8181150762648741 26.9425718856115353 14.3274935008616708
 24.8181150762648741 26.9425718856115353 17.2124891681027847
 24.8181150762648741 26.9425718856115353 20.0974848353438986
 24.8181150762648741 26.9425718856115353 22.9824805025850125
 24.8181150762648741 26.9425718856115353 25.8674761698261264
 24.8181150762648741 26.9425718856115353 28.7524718370672403
 24.8181150762648741 26.9425718856115353 31.6374675043083542
 24.8181150762648741 26.9425718856115353 34.5224631715494681
 24.8181150762648741 26.9425718856115353 37.4074588387905820
 24.8181150762648741 26.9425718856115353 40.2924545060316959
 24.8181150762648741 26.9425718856115353 43.1774501732728098
 24.8181150762648741 26.9425718856115353 46.0624458405139237
 25.7257408959877694 24.1491868423351903 11.4424978336205569
 25.7257408959877694 24.1491868423351903 14.3274935008616708
 25.7257408959877694 24.1491868423351903 17.2124891681027847
 25.7257408959877694 24.1491868423351903 20.0974848353438986
 25.7257408959877694 24.1491868423351903 22.9824805025850125
 25.7257408959877694 24.1491868423351903 25.8674761698261264
 25.7257408959877694 24.1491868423351903 28.7524718370672403
 25.7257408959877694 24.1491868423351903 31.6374675043083542
 25.7257408959877694 24.1491868423351903 34.5224631715494681
 25.7257408959877694 24.1491868423351903 37.4074588387905820
 25.7257408959877694 24.1491868423351903 40.2924545060316959
 25.7257408959877694 24.1491868423351903 43.1774501732728098
 25.7257408959877694 24.1491868423351903 46.0624458405139237
 28.6628797467450269 24.1491868423351903 11.4424978336205569
 28.6628797467450269 24.1491868423351903 14.3274935008616708
 28.6628797467450269 24.1491868423351903 17.2124891681027847
 28.6628797467450269 24.1491868423351903 20.0974848353438986
 28.6628797467450269 24.1491868423351903 22.9824805025850125
 28.6628797467450269 24.1491868423351903 25.8674761698261264
 28.6628797467450269 24.1491868423351903 28.7524718370672403
 28.6628797467450269 24.1491868423351903 31.6374675043083542
 28.6628797467450269 24.1491868423351903 34.5224631715494681
 28.6628797467450269 24.1491868423351903 37.4074588387905820
 28.6628797467450269 24.1491868423351903 40.2924545060316959
 28.6628797467450269 24.1491868423351903 43.1774501732728098
 28.6628797467450269 24.1491868423351903 46.0624458405139237
 31.9467008115694426 27.7146445228399969 12.8849956672411139
 31.9467008115694426 27.7146445228399969 15.7699913344822278
 31.9467008115694426 27.7146445228399969 18.6549870017233417
 31.9467008115694426 27.7146445228399969 21.5399826689644556
 31.9467008115694426 27.7146445228399969 24.4249783362055695
 31.9467008115694426 27.7146445228399969 27.3099740034466834
 31.9467008115694426 27.7146445228399969 30.1949696706877972
 31.9467008115694426 27.7146445228399969 33.0799653379289111
 31.9467008115694426 27.7146445228399969 35.9649610051700250
 31.9467008115694426 27.7146445228399969 38.8499566724111389
 31.9467008115694426 27.7146445228399969 41.7349523396522528
 31.9467008115694426 27.7146445228399969 44.6199480068933667
 29.5705055664679222 29.4410514232503786 12.8849956672411139
 29.5705055664679222 29.4410514232503786 15.7699913344822278
 29.5705055664679222 29.4410514232503786 18.6549870017233417
 29.5705055664679222 29.4410514232503786 21.5399826689644556
 29.5705055664679222 29.4410514232503786 24.4249783362055695
 29.5705055664679222 29.4410514232503786 27.3099740034466834
 29.5705055664679222 29.4410514232503786 30.1949696706877972
 29.5705055664679222 29.4410514232503786 33.0799653379289111
 29.5705055664679222 29.4410514232503786 35.9649610051700250
 29.5705055664679222 29.4410514232503786 38.8499566724111389
 29.5705055664679222 29.4410514232503786 41.7349523396522528
 29.5705055664679222 29.4410514232503786 44.6199480068933667
 27.1943103213663981 31.1674583236607567 12.8849956672411139
 27.1943103213663981 31.1674583236607567 15.7699913344822278
 27.1943103213663981 31.1674583236607567 18.6549870017233417
 27.1943103213663981 31.1674583236607567 21.5399826689644556
 27.1943103213663981 31.1674583236607567 24.4249783362055695
 27.1943103213663981 31.1674583236607567 27.3099740034466834
 27.1943103213663981 31.1674583236607567 30.1949696706877972
 27.1943103213663981 31.1674583236607567 33.0799653379289111
 27.1943103213663981 31.1674583236607567 35.9649610051700250
 27.1943103213663981 31.1674583236607567 38.8499566724111389
 27.1943103213663981 31.1674583236607567 41.7349523396522528
 27.1943103213663981 31.1674583236607567 44.6199480068933667
 24.8181150762648741 29.4410514232503786 12.8849956672411139
 24.8181150762648741 29.4410514232503786 15.7699913344822278
 24.8181150762648741 29.4410514232503786 18.6549870017233417
 24.8181150762648741 29.4410514232503786 21.5399826689644556
 24.8181150762648741 29.4410514232503786 24.4249783362055695
 24.8181150762648741 29.4410514232503786 27.3099740034466834
 24.8181150762648741 29.4410514232503786 30.1949696706877972
 24.8181150762648741 29.4410514232503786 33.0799653379289111
 24.8181150762648741 29.4410514232503786 35.9649610051700250
 24.8181150762648741 29.4410514232503786 38.8499566724111389
 24.8181150762648741 29.4410514232503786 41.7349523396522528
 24.8181150762648741 29.4410514232503786 44.6199480068933667
 22.4419198311633536 27.7146445228400005 12.8849956672411139
 22.4419198311633536 27.7146445228400005 15.7699913344822278
 22.4419198311633536 27.7146445228400005 18.6549870017233417
 22.4419198311633536 27.7146445228400005 21.5399826689644556
 22.4419198311633536 27.7146445228400005 24.4249783362055695
 22.4419198311633536 27.7146445228400005 27.3099740034466834
 22.4419198311633536 27.7146445228400005 30.1949696706877972
 22.4419198311633536 27.7146445228400005 33.0799653379289111
 22.4419198311633536 27.7146445228400005 35.9649610051700250
 22.4419198311633536 27.7146445228400005 38.8499566724111389
 22.4419198311633536 27.7146445228400005 41.7349523396522528
 22.4419198311633536 27.7146445228400005 44.6199480068933667
 23.3495456508862489 24.9212594795636520 12.8849956672411139
 23.3495456508862489 24.9212594795636520 15.7699913344822278
 23.3495456508862489 24.9212594795636520 18.6549870017233417
 23.3495456508862489 24.9212594795636520 21.5399826689644556
 23.3495456508862489 24.9212594795636520 24.4249783362055695
 23.3495456508862489 24.9212594795636520 27.3099740034466834
 23.3495456508862489 24.9212594795636520 30.1949696706877972
 23.3495456508862489 24.9212594795636520 33.0799653379289111
 23.3495456508862489 24.9212594795636520 35.9649610051700250
 23.3495456508862489 24.9212594795636520 38.8499566724111389
 23.3495456508862489 24.9212594795636520 41.7349523396522528
 23.3495456508862489 24.9212594795636520 44.6199480068933667
 24.2571714706091406 22.1278744362873070 12.8849956672411139
 24.2571714706091406 22.1278744362873070 15.7699913344822278
 24.2571714706091406 22.1278744362873070 18.6549870017233417
 24.2571714706091406 22.1278744362873070 21.5399826689644556
 24.2571714706091406 22.1278744362873070 24.4249783362055695
 24.2571714706091406 22.1278744362873070 27.3099740034466834
 24.2571714706091406 22.1278744362873070 30.1949696706877972
 24.2571714706091406 22.1278744362873070 33.0799653379289111
 24.2571714706091406 22.1278744362873070 35.9649610051700250
 24.2571714706091406 22.1278744362873070 38.8499566724111389
 24.2571714706091406 22.1278744362873070 41.7349523396522528
 24.2571714706091406 22.1278744362873070 44.6199480068933667
 27.1943103213663981 22.1278744362873070 12.8849956672411139
 27.1943103213663981 22.1278744362873070 15.7699913344822278
 27.1943103213663981 22.1278744362873070 18.6549870017233417
 27.1943103213663981 22.1278744362873070 21.5399826689644556
 27.1943103213663981 22.1278744362873070 24.4249783362055695
 27.1943103213663981 22.1278744362873070 27.3099740034466834
 27.1943103213663981 22.1278744362873070 30.1949696706877972
 27.1943103213663981 22.1278744362873070 33.0799653379289111
 27.1943103213663981 22.1278744362873070 35.9649610051700250
 27.1943103213663981 22.1278744362873070 38.8499566724111389
 27.1943103213663981 22.1278744362873070 41.7349523396522528
 27.1943103213663981 22.1278744362873070 44.6199480068933667
 30.1314491721236521 22.1278744362873070 12.8849956672411139
 30.1314491721236521 22.1278744362873070 15.7699913344822278
 30.1314491721236521 22.1278744362873070 18.6549870017233417
 30.1314491721236521 22.1278744362873070 21.5399826689644556
 30.1314491721236521 22.1278744362873070 24.4249783362055695
 30.1314491721236521 22.1278744362873070 27.3099740034466834
 30.1314491721236521 22.1278744362873070 30.1949696706877972
 30.1314491721236521 22.1278744362873070 33.0799653379289111
 30.1314491721236521 22.1278744362873070 35.9649610051700250
 30.1314491721236521 22.1278744362873070 38.8499566724111389
 30.1314491721236521 22.1278744362873070 41.7349523396522528
 30.1314491721236521 22.1278744362873070 44.6199480068933667
 31.0390749918465474 24.9212594795636520 12.8849956672411139
 31.0390749918465474 24.9212594795636520 15.7699913344822278
 31.0390749918465474 24.9212594795636520 18.6549870017233417
 31.0390749918465474 24.9212594795636520 21.5399826689644556
 31.0390749918465474 24.9212594795636520 24.4249783362055695
 31.0390749918465474 24.9212594795636520 27.3099740034466834
 31.0390749918465474 24.9212594795636520 30.1949696706877972
 31.0390749918465474 24.9212594795636520 33.0799653379289111
 31.0390749918465474 24.9212594795636520 35.9649610051700250
 31.0390749918465474 24.9212594795636520 38.8499566724111389
 31.0390749918465474 24.9212594795636520 41.7349523396522528
 31.0390749918465474 24.9212594795636520 44.6199480068933667
 34.3228960566709702 28.4867171600684621 14.3274935008616708
 34.3228960566709702 28.4867171600684621 17.2124891681027847
 34.3228960566709702 28.4867171600684621 20.0974848353438986
 34.3228960566709702 28.4867171600684621 22.9824805025850125
 34.3228960566709702 28.4867171600684621 25.8674761698261264
 34.3228960566709702 28.4867171600684621 28.7524718370672403
 34.3228960566709702 28.4867171600684621 31.6374675043083542
 34.3228960566709702 28.4867171600684621 34.5224631715494681
 34.3228960566709702 28.4867171600684621 37.4074588387905820
 34.3228960566709702 28.4867171600684621 40.2924545060316959
 34.3228960566709702 28.4867171600684621 43.1774501732728098
 31.9467008115694426 30.2131240604788402 14.3274935008616708
 31.9467008115694426 30.2131240604788402 17.2124891681027847
 31.9467008115694426 30.2131240604788402 20.0974848353438986
 31.9467008115694426 30.2131240604788402 22.9824805025850125
 31.9467008115694426 30.2131240604788402 25.8674761698261264
 31.9467008115694426 30.2131240604788402 28.7524718370672403
 31.9467008115694426 30.2131240604788402 31.6374675043083542
 31.9467008115694426 30.2131240604788402 34.5224631715494681
 31.9467008115694426 30.2131240604788402 37.4074588387905820
 31.9467008115694426 30.2131240604788402 40.2924545060316959
 31.9467008115694426 30.2131240604788402 43.1774501732728098
 29.5705055664679222 31.9395309608892184 14.3274935008616708
 29.5705055664679222 31.9395309608892184 17.2124891681027847
 29.5705055664679222 31.9395309608892184 20.0974848353438986
 29.5705055664679222 31.9395309608892184 22.9824805025850125
 29.5705055664679222 31.9395309608892184 25.8674761698261264
 29.5705055664679222 31.9395309608892184 28.7524718370672403
 29.5705055664679222 31.9395309608892184 31.6374675043083542
 29.5705055664679222 31.9395309608892184 34.5224631715494681
 29.5705055664679222 31.9395309608892184 37.4074588387905820
 29.5705055664679222 31.9395309608892184 40.2924545060316959
 29.5705055664679222 31.9395309608892184 43.1774501732728098
 27.1943103213663981 33.6659378612995965 14.3274935008616708
 27.1943103213663981 33.6659378612995965 17.2124891681027847
 27.1943103213663981 33.6659378612995965 20.0974848353438986
 27.1943103213663981 33.6659378612995965 22.9824805025850125
 27.1943103213663981 33.6659378612995965 25.8674761698261264
 27.1943103213663981 33.6659378612995965 28.7524718370672403
 27.1943103213663981 33.6659378612995965 31.6374675043083542
 27.1943103213663981 33.6659378612995965 34.5224631715494681
 27.1943103213663981 33.6659378612995965 37.4074588387905820
 27.1943103213663981 33.6659378612995965 40.2924545060316959
 27.1943103213663981 33.6659378612995965 43.1774501732728098
 24.8181150762648741 31.9395309608892219 14.3274935008616708
 24.8181150762648741 31.9395309608892219 17.2124891681027847
 24.8181150762648741 31.9395309608892219 20.0974848353438986
 24.8181150762648741 31.9395309608892219 22.9824805025850125
 24.8181150762648741 31.9395309608892219 25.8674761698261264
 24.8181150762648741 31.9395309608892219 28.7524718370672403
 24.8181150762648741 31.9395309608892219 31.6374675043083542
 24.8181150762648741 31.9395309608892219 34.5224631715494681
 24.8181150762648741 31.9395309608892219 37.4074588387905820
 24.8181150762648741 31.9395309608892219 40.2924545060316959
 24.8181150762648741 31.9395309608892219 43.1774501732728098
 22.4419198311633536 30.2131240604788402 14.3274935008616708
 22.4419198311633536 30.2131240604788402 17.2124891681027847
 22.4419198311633536 30.2131240604788402 20.0974848353438986
 22.4419198311633536 30.2131240604788402 22.9824805025850125
 22.4419198311633536 30.2131240604788402 25.8674761698261264
 22.4419198311633536 30.2131240604788402 28.7524718370672403
 22.4419198311633536 30.2131240604788402 31.6374675043083542
 22.4419198311633536 30.2131240604788402 34.5224631715494681
 22.4419198311633536 30.2131240604788402 37.4074588387905820
 22.4419198311633536 30.2131240604788402 40.2924545060316959
 22.4419198311633536 30.2131240604788402 43.1774501732728098
 20.0657245860618296 28.4867171600684621 14.3274935008616708
 20.0657245860618296 28.4867171600684621 17.2124891681027847
 20.0657245860618296 28.4867171600684621 20.0974848353438986
 20.0657245860618296 28.4867171600684621 22.9824805025850125
 20.0657245860618296 28.4867171600684621 25.8674761698261264
 20.0657245860618296 28.4867171600684621 28.7524718370672403
 20.0657245860618296 28.4867171600684621 31.6374675043083542
 20.0657245860618296 28.4867171600684621 34.5224631715494681
 20.0657245860618296 28.4867171600684621 37.4074588387905820
 20.0657245860618296 28.4867171600684621 40.2924545060316959
 20.0657245860618296 28.4867171600684621 43.1774501732728098
 20.9733504057847249 25.6933321167921171 14.3274935008616708
 20.9733504057847249 25.6933321167921171 17.2124891681027847
 20.9733504057847249 25.6933321167921171 20.0974848353438986
 20.9733504057847249 25.6933321167921171 22.9824805025850125
 20.9733504057847249 25.6933321167921171 25.8674761698261264
 20.9733504057847249 25.6933321167921171 28.7524718370672403
 20.9733504057847249 25.6933321167921171 31.6374675043083542
 20.9733504057847249 25.6933321167921171 34.5224631715494681
 20.9733504057847249 25.6933321167921171 37.4074588387905820
 20.9733504057847249 25.6933321167921171 40.2924545060316959
 20.9733504057847249 25.6933321167921171 43.1774501732728098
 21.8809762255076166 22.8999470735157686 14.3274935008616708
 21.8809762255076166 22.8999470735157686 17.2124891681027847
 21.8809762255076166 22.8999470735157686 20.0974848353438986
 21.8809762255076166 22.8999470735157686 22.9824805025850125
 21.8809762255076166 22.8999470735157686 25.8674761698261264
 21.8809762255076166 22.8999470735157686 28.7524718370672403
 21.8809762255076166 22.8999470735157686 31.6374675043083542
 21.8809762255076166 22.8999470735157686 34.5224631715494681
 21.8809762255076166 22.8999470735157686 37.4074588387905820
 21.8809762255076166 22.8999470735157686 40.2924545060316959
 21.8809762255076166 22.8999470735157686 43.1774501732728098
 22.7886020452305118 20.1065620302394237 14.3274935008616708
 22.7886020452305118 20.1065620302394237 17.2124891681027847
 22.7886020452305118 20.1065620302394237 20.0974848353438986
 22.7886020452305118 20.1065620302394237 22.9824805025850125
 22.7886020452305118 20.1065620302394237 25.8674761698261264
 22.7886020452305118 20.1065620302394237 28.7524718370672403
 22.7886020452305118 20.1065620302394237 31.6374675043083542
 22.7886020452305118 20.1065620302394237 34.5224631715494681
 22.7886020452305118 20.1065620302394237 37.4074588387905820
 22.7886020452305118 20.1065620302394237 40.2924545060316959
 22.7886020452305118 20.1065620302394237 43.1774501732728098
 25.7257408959877694 20.1065620302394237 14.3274935008616708
 25.7257408959877694 20.1065620302394237 17.2124891681027847
 25.7257408959877694 20.1065620302394237 20.0974848353438986
 25.7257408959877694 20.1065620302394237 22.9824805025850125
 25.7257408959877694 20.1065620302394237 25.8674761698261264
 25.7257408959877694 20.1065620302394237 28.7524718370672403
 25.7257408959877694 20.1065620302394237 31.6374675043083542
 25.7257408959877694 20.1065620302394237 34.5224631715494681
 25.7257408959877694 20.1065620302394237 37.4074588387905820
 25.7257408959877694 20.1065620302394237 40.2924545060316959
 25.7257408959877694 20.1065620302394237 43.1774501732728098
 28.6628797467450269 20.1065620302394237 14.3274935008616708
 28.6628797467450269 20.1065620302394237 17.2124891681027847
 28.6628797467450269 20.1065620302394237 20.0974848353438986
 28.6628797467450269 20.1065620302394237 22.9824805025850125
 28.6628797467450269 20.1065620302394237 25.8674761698261264
 28.6628797467450269 20.1065620302394237 28.7524718370672403
 28.6628797467450269 20.1065620302394237 31.6374675043083542
 28.6628797467450269 20.1065620302394237 34.5224631715494681
 28.6628797467450269 20.1065620302394237 37.4074588387905820
 28.6628797467450269 20.1065620302394237 40.2924545060316959
 28.6628797467450269 20.1065620302394237 43.1774501732728098
 31.6000185975022809 20.1065620302394201 14.3274935008616708
 31.6000185975022809 20.1065620302394201 17.2124891681027847
 31.6000185975022809 20.1065620302394201 20.0974848353438986
 31.6000185975022809 20.1065620302394201 22.9824805025850125
 31.6000185975022809 20.1065620302394201 25.8674761698261264
 31.6000185975022809 20.1065620302394201 28.7524718370672403
 31.6000185975022809 20.1065620302394201 31.6374675043083542
 31.6000185975022809 20.1065620302394201 34.5224631715494681
 31.6000185975022809 20.1065620302394201 37.4074588387905820
 31.6000185975022809 20.1065620302394201 40.2924545060316959
 31.6000185975022809 20.1065620302394201 43.1774501732728098
 32.5076444172251797 22.8999470735157686 14.3274935008616708
 32.5076444172251797 22.8999470735157686 17.2124891681027847
 32.5076444172251797 22.8999470735157686 20.0974848353438986
 32.5076444172251797 22.8999470735157686 22.9824805025850125
 32.5076444172251797 22.8999470735157686 25.8674761698261264
 32.5076444172251797 22.8999470735157686 28.7524718370672403
 32.5076444172251797 22.8999470735157686 31.6374675043083542
 32.5076444172251797 22.8999470735157686 34.5224631715494681
 32.5076444172251797 22.8999470735157686 37.4074588387905820
 32.5076444172251797 22.8999470735157686 40.2924545060316959
 32.5076444172251797 22.8999470735157686 43.1774501732728098
 33.4152702369480750 25.6933321167921136 14.3274935008616708
 33.4152702369480750 25.6933321167921136 17.2124891681027847
 33.4152702369480750 25.6933321167921136 20.0974848353438986
 33.4152702369480750 25.6933321167921136 22.9824805025850125
 33.4152702369480750 25.6933321167921136 25.8674761698261264
 33.4152702369480750 25.6933321167921136 28.7524718370672403
 33.4152702369480750 25.6933321167921136 31.6374675043083542
 33.4152702369480750 25.6933321167921136 34.5224631715494681
 33.4152702369480750 25.6933321167921136 37.4074588387905820
 33.4152702369480750 25.6933321167921136 40.2924545060316959
 33.4152702369480750 25.6933321167921136 43.1774501732728098
 36.6990913017724907 29.2587897972969238 15.7699913344822278
 36.6990913017724907 29.2587897972969238 18.6549870017233417
 36.6990913017724907 29.2587897972969238 21.5399826689644556
 36.6990913017724907 29.2587897972969238 24.4249783362055695
 36.6990913017724907 29.2587897972969238 27.3099740034466834
 36.6990913017724907 29.2587897972969238 30.1949696706877972
 36.6990913017724907 29.2587897972969238 33.0799653379289111
 36.6990913017724907 29.2587897972969238 35.9649610051700250
 36.6990913017724907 29.2587897972969238 38.8499566724111389
 36.6990913017724907 29.2587897972969238 41.7349523396522528
 34.3228960566709702 30.9851966977073019 15.7699913344822278
 34.3228960566709702 30.9851966977073019 18.6549870017233417
 34.3228960566709702 30.9851966977073019 21.5399826689644556
 34.3228960566709702 30.9851966977073019 24.4249783362055695
 34.3228960566709702 30.9851966977073019 27.3099740034466834
 34.3228960566709702 30.9851966977073019 30.1949696706877972
 34.3228960566709702 30.9851966977073019 33.0799653379289111
 34.3228960566709702 30.9851966977073019 35.9649610051700250
 34.3228960566709702 30.9851966977073019 38.8499566724111389
 34.3228960566709702 30.9851966977073019 41.7349523396522528
 31.9467008115694426 32.7116035981176836 15.7699913344822278
 31.9467008115694426 32.7116035981176836 18.6549870017233417
 31.9467008115694426 32.7116035981176836 21.5399826689644556
 31.9467008115694426 32.7116035981176836 24.4249783362055695
 31.9467008115694426 32.7116035981176836 27.3099740034466834
 31.9467008115694426 32.7116035981176836 30.1949696706877972
 31.9467008115694426 32.7116035981176836 33.0799653379289111
 31.9467008115694426 32.7116035981176836 35.9649610051700250
 31.9467008115694426 32.7116035981176836 38.8499566724111389
 31.9467008115694426 32.7116035981176836 41.7349523396522528
 29.5705055664679222 34.4380104985280582 15.7699913344822278
 29.5705055664679222 34.4380104985280582 18.6549870017233417
 29.5705055664679222 34.4380104985280582 21.5399826689644556
 29.5705055664679222 34.4380104985280582 24.4249783362055695
 29.5705055664679222 34.4380104985280582 27.3099740034466834
 29.5705055664679222 34.4380104985280582 30.1949696706877972
 29.5705055664679222 34.4380104985280582 33.0799653379289111
 29.5705055664679222 34.4380104985280582 35.9649610051700250
 29.5705055664679222 34.4380104985280582 38.8499566724111389
 29.5705055664679222 34.4380104985280582 41.7349523396522528
 27.1943103213663981 36.1644173989384399 15.7699913344822278
 27.1943103213663981 36.1644173989384399 18.6549870017233417
 27.1943103213663981 36.1644173989384399 21.5399826689644556
 27.1943103213663981 36.1644173989384399 24.4249783362055695
 27.1943103213663981 36.1644173989384399 27.3099740034466834
 27.1943103213663981 36.1644173989384399 30.1949696706877972
 27.1943103213663981 36.1644173989384399 33.0799653379289111
 27.1943103213663981 36.1644173989384399 35.9649610051700250
 27.1943103213663981 36.1644173989384399 38.8499566724111389
 27.1943103213663981 36.1644173989384399 41.7349523396522528
 24.8181150762648741 34.4380104985280582 15.7699913344822278
 24.8181150762648741 34.4380104985280582 18.6549870017233417
 24.8181150762648741 34.4380104985280582 21.5399826689644556
 24.8181150762648741 34.4380104985280582 24.4249783362055695
 24.8181150762648741 34.4380104985280582 27.3099740034466834
 24.8181150762648741 34.4380104985280582 30.1949696706877972
 24.8181150762648741 34.4380104985280582 33.0799653379289111
 24.8181150762648741 34.4380104985280582 35.9649610051700250
 24.8181150762648741 34.4380104985280582 38.8499566724111389
 24.8181150762648741 34.4380104985280582 41.7349523396522528
 22.4419198311633536 32.7116035981176836 15.7699913344822278
 22.4419198311633536 32.7116035981176836 18.6549870017233417
 22.4419198311633536 32.7116035981176836 21.5399826689644556
 22.4419198311633536 32.7116035981176836 24.4249783362055695
 22.4419198311633536 32.7116035981176836 27.3099740034466834
 22.4419198311633536 32.7116035981176836 30.1949696706877972
 22.4419198311633536 32.7116035981176836 33.0799653379289111
 22.4419198311633536 32.7116035981176836 35.9649610051700250
 22.4419198311633536 32.7116035981176836 38.8499566724111389
 22.4419198311633536 32.7116035981176836 41.7349523396522528
 20.0657245860618296 30.9851966977073054 15.7699913344822278
 20.0657245860618296 30.9851966977073054 18.6549870017233417
 20.0657245860618296 30.9851966977073054 21.5399826689644556
 20.0657245860618296 30.9851966977073054 24.4249783362055695
 20.0657245860618296 30.9851966977073054 27.3099740034466834
 20.0657245860618296 30.9851966977073054 30.1949696706877972
 20.0657245860618296 30.9851966977073054 33.0799653379289111
 20.0657245860618296 30.9851966977073054 35.9649610051700250
 20.0657245860618296 30.9851966977073054 38.8499566724111389
 20.0657245860618296 30.9851966977073054 41.7349523396522528
 17.6895293409603056 29.2587897972969273 15.7699913344822278
 17.6895293409603056 29.2587897972969273 18.6549870017233417
 17.6895293409603056 29.2587897972969273 21.5399826689644556
 17.6895293409603056 29.2587897972969273 24.4249783362055695
 17.6895293409603056 29.2587897972969273 27.3099740034466834
 17.6895293409603056 29.2587897972969273 30.1949696706877972
 17.6895293409603056 29.2587897972969273 33.0799653379289111
 17.6895293409603056 29.2587897972969273 35.9649610051700250
 17.6895293409603056 29.2587897972969273 38.8499566724111389
 17.6895293409603056 29.2587897972969273 41.7349523396522528
 18.5971551606832008 26.4654047540205788 15.7699913344822278
 18.5971551606832008 26.4654047540205788 18.6549870017233417
 18.5971551606832008 26.4654047540205788 21.5399826689644556
 18.5971551606832008 26.4654047540205788 24.4249783362055695
 18.5971551606832008 26.4654047540205788 27.3099740034466834
 18.5971551606832008 26.4654047540205788 30.1949696706877972
 18.5971551606832008 26.4654047540205788 33.0799653379289111
 18.5971551606832008 26.4654047540205788 35.9649610051700250
 18.5971551606832008 26.4654047540205788 38.8499566724111389
 18.5971551606832008 26.4654047540205788 41.7349523396522528
 19.5047809804060961 23.6720197107442338 15.7699913344822278
 19.5047809804060961 23.6720197107442338 18.6549870017233417
 19.5047809804060961 23.6720197107442338 21.5399826689644556
 19.5047809804060961 23.6720197107442338 24.4249783362055695
 19.5047809804060961 23.6720197107442338 27.3099740034466834
 19.5047809804060961 23.6720197107442338 30.1949696706877972
 19.5047809804060961 23.6720197107442338 33.0799653379289111
 19.5047809804060961 23.6720197107442338 35.9649610051700250
 19.5047809804060961 23.6720197107442338 38.8499566724111389
 19.5047809804060961 23.6720197107442338 41.7349523396522528
 20.4124068001289913 20.8786346674678853 15.7699913344822278
 20.4124068001289913 20.8786346674678853 18.6549870017233417
 20.4124068001289913 20.8786346674678853 21.5399826689644556
 20.4124068001289913 20.8786346674678853 24.4249783362055695
 20.4124068001289913 20.8786346674678853 27.3099740034466834
 20.4124068001289913 20.8786346674678853 30.1949696706877972
 20.4124068001289913 20.8786346674678853 33.0799653379289111
 20.4124068001289913 20.8786346674678853 35.9649610051700250
 20.4124068001289913 20.8786346674678853 38.8499566724111389
 20.4124068001289913 20.8786346674678853 41.7349523396522528
 21.3200326198518866 18.0852496241915404 15.7699913344822278
 21.3200326198518866 18.0852496241915404 18.6549870017233417
 21.3200326198518866 18.0852496241915404 21.5399826689644556