Au 
 1.0000000000000000
    72.2762953922334930    0.0000000000000000    0.0000000000000000
     0.0000000000000000   69.7177113805539790    0.0000000000000000
     0.0000000000000000    0.0000000000000000   54.6199480068933667
 Au 
 1773
Cartesian
 36.1381476961167465 32.2344364665267236 10.0000000000000000
 36.1381476961167465 32.2344364665267236 12.8849956672411139
 36.1381476961167465 32.2344364665267236 15.7699913344822278
 36.1381476961167465 32.2344364665267236 18.6549870017233417
 36.1381476961167465 32.2344364665267236 21.5399826689644556
 36.1381476961167465 32.2344364665267236 24.4249783362055695
 36.1381476961167465 32.2344364665267236 27.3099740034466834
 36.1381476961167465 32.2344364665267236 30.1949696706877972
 36.1381476961167465 32.2344364665267236 33.0799653379289111
 36.1381476961167465 32.2344364665267236 35.9649610051700250
 36.1381476961167465 32.2344364665267236 38.8499566724111389
 36.1381476961167465 32.2344364665267236 41.7349523396522528
 36.1381476961167465 32.2344364665267236 44.6199480068933667
 38.5143429412182670 33.0065091037551852 11.4424978336205569
 38.5143429412182670 33.0065091037551852 14.3274935008616708
 38.5143429412182670 33.0065091037551852 17.2124891681027847
 38.5143429412182670 33.0065091037551852 20.0974848353438986
 38.5143429412182670 33.0065091037551852 22.9824805025850125
 38.5143429412182670 33.0065091037551852 25.8674761698261264
 38.5143429412182670 33.0065091037551852 28.7524718370672403
 38.5143429412182670 33.0065091037551852 31.6374675043083542
 38.5143429412182670 33.0065091037551852 34.5224631715494681
 38.5143429412182670 33.0065091037551852 37.4074588387905820
 38.5143429412182670 33.0065091037551852 40.2924545060316959
 38.5143429412182670 33.0065091037551852 43.1774501732728098
 36.1381476961167465 34.7329160041655669 11.4424978336205569
 36.1381476961167465 34.7329160041655669 14.3274935008616708
 36.1381476961167465 34.7329160041655669 17.2124891681027847
 36.1381476961167465 34.7329160041655669 20.0974848353438986
 36.1381476961167465 34.7329160041655669 22.9824805025850125
 36.1381476961167465 34.7329160041655669 25.8674761698261264
 36.1381476961167465 34.7329160041655669 28.7524718370672403
 36.1381476961167465 34.7329160041655669 31.6374675043083542
 36.1381476961167465 34.7329160041655669 34.5224631715494681
 36.1381476961167465 34.7329160041655669 37.4074588387905820
 36.1381476961167465 34.7329160041655669 40.2924545060316959
 36.1381476961167465 34.7329160041655669 43.1774501732728098
 33.7619524510152260 33.0065091037551852 11.4424978336205569
 33.7619524510152260 33.0065091037551852 14.3274935008616708
 33.7619524510152260 33.0065091037551852 17.2124891681027847
 33.7619524510152260 33.0065091037551852 20.0974848353438986
 33.7619524510152260 33.0065091037551852 22.9824805025850125
 33.7619524510152260 33.0065091037551852 25.8674761698261264
 33.7619524510152260 33.0065091037551852 28.7524718370672403
 33.7619524510152260 33.0065091037551852 31.6374675043083542
 33.7619524510152260 33.0065091037551852 34.5224631715494681
 33.7619524510152260 33.0065091037551852 37.4074588387905820
 33.7619524510152260 33.0065091037551852 40.2924545060316959
 33.7619524510152260 33.0065091037551852 43.1774501732728098
 34.6695782707381213 30.2131240604788402 11.4424978336205569
 34.6695782707381213 30.2131240604788402 14.3274935008616708
 34.6695782707381213 30.2131240604788402 17.2124891681027847
 34.6695782707381213 30.2131240604788402 20.0974848353438986
 34.6695782707381213 30.2131240604788402 22.9824805025850125
 34.6695782707381213 30.2131240604788402 25.8674761698261264
 34.6695782707381213 30.2131240604788402 28.7524718370672403
 34.6695782707381213 30.2131240604788402 31.6374675043083542
 34.6695782707381213 30.2131240604788402 34.5224631715494681
 34.6695782707381213 30.2131240604788402 37.4074588387905820
 34.6695782707381213 30.2131240604788402 40.2924545060316959
 34.6695782707381213 30.2131240604788402 43.1774501732728098
 37.6067171214953717 30.2131240604788402 11.4424978336205569
 37.6067171214953717 30.2131240604788402 14.3274935008616708
 37.6067171214953717 30.2131240604788402 17.2124891681027847
 37.6067171214953717 30.2131240604788402 20.0974848353438986
 37.6067171214953717 30.2131240604788402 22.9824805025850125
 37.6067171214953717 30.2131240604788402 25.8674761698261264
 37.6067171214953717 30.2131240604788402 28.7524718370672403
 37.6067171214953717 30.2131240604788402 31.6374675043083542
 37.6067171214953717 30.2131240604788402 34.5224631715494681
 37.6067171214953717 30.2131240604788402 37.4074588387905820
 37.6067171214953717 30.2131240604788402 40.2924545060316959
 37.6067171214953717 30.2131240604788402 43.1774501732728098
 40.8905381863197945 33.7785817409836469 12.8849956672411139
 40.8905381863197945 33.7785817409836469 15.7699913344822278
 40.8905381863197945 33.7785817409836469 18.6549870017233417
 40.8905381863197945 33.7785817409836469 21.5399826689644556
 40.8905381863197945 33.7785817409836469 24.4249783362055695
 40.8905381863197945 33.7785817409836469 27.3099740034466834
 40.8905381863197945 33.7785817409836469 30.1949696706877972
 40.8905381863197945 33.7785817409836469 33.0799653379289111
 40.8905381863197945 33.7785817409836469 35.9649610051700250
 40.8905381863197945 33.7785817409836469 38.8499566724111389
 40.8905381863197945 33.7785817409836469 41.7349523396522528
 38.5143429412182670 35.5049886413940285 12.8849956672411139
 38.5143429412182670 35.5049886413940285 15.7699913344822278
 38.5143429412182670 35.5049886413940285 18.6549870017233417
 38.5143429412182670 35.5049886413940285 21.5399826689644556
 38.5143429412182670 35.5049886413940285 24.4249783362055695
 38.5143429412182670 35.5049886413940285 27.3099740034466834
 38.5143429412182670 35.5049886413940285 30.1949696706877972
 38.5143429412182670 35.5049886413940285 33.0799653379289111
 38.5143429412182670 35.5049886413940285 35.9649610051700250
 38.5143429412182670 35.5049886413940285 38.8499566724111389
 38.5143429412182670 35.5049886413940285 41.7349523396522528
 36.1381476961167465 37.2313955418044031 12.8849956672411139
 36.1381476961167465 37.2313955418044031 15.7699913344822278
 36.1381476961167465 37.2313955418044031 18.6549870017233417
 36.1381476961167465 37.2313955418044031 21.5399826689644556
 36.1381476961167465 37.2313955418044031 24.4249783362055695
 36.1381476961167465 37.2313955418044031 27.3099740034466834
 36.1381476961167465 37.2313955418044031 30.1949696706877972
 36.1381476961167465 37.2313955418044031 33.0799653379289111
 36.1381476961167465 37.2313955418044031 35.9649610051700250
 36.1381476961167465 37.2313955418044031 38.8499566724111389
 36.1381476961167465 37.2313955418044031 41.7349523396522528
 33.7619524510152260 35.5049886413940285 12.8849956672411139
 33.7619524510152260 35.5049886413940285 15.7699913344822278
 33.7619524510152260 35.5049886413940285 18.6549870017233417
 33.7619524510152260 35.5049886413940285 21.5399826689644556
 33.7619524510152260 35.5049886413940285 24.4249783362055695
 33.7619524510152260 35.5049886413940285 27.3099740034466834
 33.7619524510152260 35.5049886413940285 30.1949696706877972
 33.7619524510152260 35.5049886413940285 33.0799653379289111
 33.7619524510152260 35.5049886413940285 35.9649610051700250
 33.7619524510152260 35.5049886413940285 38.8499566724111389
 33.7619524510152260 35.5049886413940285 41.7349523396522528
 31.3857572059137020 33.7785817409836469 12.8849956672411139
 31.3857572059137020 33.7785817409836469 15.7699913344822278
 31.3857572059137020 33.7785817409836469 18.6549870017233417
 31.3857572059137020 33.7785817409836469 21.5399826689644556
 31.3857572059137020 33.7785817409836469 24.4249783362055695
 31.3857572059137020 33.7785817409836469 27.3099740034466834
 31.3857572059137020 33.7785817409836469 30.1949696706877972
 31.3857572059137020 33.7785817409836469 33.0799653379289111
 31.3857572059137020 33.7785817409836469 35.9649610051700250
 31.3857572059137020 33.7785817409836469 38.8499566724111389
 31.3857572059137020 33.7785817409836469 41.7349523396522528
 32.2933830256365937 30.9851966977073019 12.8849956672411139
 32.2933830256365937 30.9851966977073019 15.7699913344822278
 32.2933830256365937 30.9851966977073019 18.6549870017233417
 32.2933830256365937 30.9851966977073019 21.5399826689644556
 32.2933830256365937 30.9851966977073019 24.4249783362055695
 32.2933830256365937 30.9851966977073019 27.3099740034466834
 32.2933830256365937 30.9851966977073019 30.1949696706877972
 32.2933830256365937 30.9851966977073019 33.0799653379289111
 32.2933830256365937 30.9851966977073019 35.9649610051700250
 32.2933830256365937 30.9851966977073019 38.8499566724111389
 32.2933830256365937 30.9851966977073019 41.7349523396522528
 33.2010088453594889 28.1918116544309569 12.8849956672411139
 33.2010088453594889 28.1918116544309569 15.7699913344822278
 33.2010088453594889 28.1918116544309569 18.6549870017233417
 33.2010088453594889 28.1918116544309569 21.5399826689644556
 33.2010088453594889 28.1918116544309569 24.4249783362055695
 33.2010088453594889 28.1918116544309569 27.3099740034466834
 33.2010088453594889 28.1918116544309569 30.1949696706877972
 33.2010088453594889 28.1918116544309569 33.0799653379289111
 33.2010088453594889 28.1918116544309569 35.9649610051700250
 33.2010088453594889 28.1918116544309569 38.8499566724111389
 33.2010088453594889 28.1918116544309569 41.7349523396522528
 36.1381476961167465 28.1918116544309569 12.8849956672411139
 36.1381476961167465 28.1918116544309569 15.7699913344822278
 36.1381476961167465 28.1918116544309569 18.6549870017233417
 36.1381476961167465 28.1918116544309569 21.5399826689644556
 36.1381476961167465 28.1918116544309569 24.4249783362055695
 36.1381476961167465 28.1918116544309569 27.3099740034466834
 36.1381476961167465 28.1918116544309569 30.1949696706877972
 36.1381476961167465 28.1918116544309569 33.0799653379289111
 36.1381476961167465 28.1918116544309569 35.9649610051700250
 36.1381476961167465 28.1918116544309569 38.8499566724111389
 36.1381476961167465 28.1918116544309569 41.7349523396522528
 39.0752865468740040 28.1918116544309569 12.8849956672411139
 39.0752865468740040 28.1918116544309569 15.7699913344822278
 39.0752865468740040 28.1918116544309569 18.6549870017233417
 39.0752865468740040 28.1918116544309569 21.5399826689644556
 39.0752865468740040 28.1918116544309569 24.4249783362055695
 39.0752865468740040 28.1918116544309569 27.3099740034466834
 39.0752865468740040 28.1918116544309569 30.1949696706877972
 39.0752865468740040 28.1918116544309569 33.0799653379289111
 39.0752865468740040 28.1918116544309569 35.9649610051700250
 39.0752865468740040 28.1918116544309569 38.8499566724111389
 39.0752865468740040 28.1918116544309569 41.7349523396522528
 39.9829123665968993 30.9851966977073019 12.8849956672411139
 39.9829123665968993 30.9851966977073019 15.7699913344822278
 39.9829123665968993 30.9851966977073019 18.6549870017233417
 39.9829123665968993 30.9851966977073019 21.5399826689644556
 39.9829123665968993 30.9851966977073019 24.4249783362055695
 39.9829123665968993 30.9851966977073019 27.3099740034466834
 39.9829123665968993 30.9851966977073019 30.1949696706877972
 39.9829123665968993 30.9851966977073019 33.0799653379289111
 39.9829123665968993 30.9851966977073019 35.9649610051700250
 39.9829123665968993 30.9851966977073019 38.8499566724111389
 39.9829123665968993 30.9851966977073019 41.7349523396522528
 43.2667334314213150 34.5506543782121085 14.3274935008616708
 43.2667334314213150 34.5506543782121085 17.2124891681027847
 43.2667334314213150 34.5506543782121085 20.0974848353438986
 43.2667334314213150 34.5506543782121085 22.9824805025850125
 43.2667334314213150 34.5506543782121085 25.8674761698261264
 43.2667334314213150 34.5506543782121085 28.7524718370672403
 43.2667334314213150 34.5506543782121085 31.6374675043083542
 43.2667334314213150 34.5506543782121085 34.5224631715494681
 43.2667334314213150 34.5506543782121085 37.4074588387905820
 43.2667334314213150 34.5506543782121085 40.2924545060316959
 40.8905381863197945 36.2770612786224902 14.3274935008616708
 40.8905381863197945 36.2770612786224902 17.2124891681027847
 40.8905381863197945 36.2770612786224902 20.0974848353438986
 40.8905381863197945 36.2770612786224902 22.9824805025850125
 40.8905381863197945 36.2770612786224902 25.8674761698261264
 40.8905381863197945 36.2770612786224902 28.7524718370672403
 40.8905381863197945 36.2770612786224902 31.6374675043083542
 40.8905381863197945 36.2770612786224902 34.5224631715494681
 40.8905381863197945 36.2770612786224902 37.4074588387905820
 40.8905381863197945 36.2770612786224902 40.2924545060316959
 38.5143429412182670 38.0034681790328719 14.3274935008616708
 38.5143429412182670 38.0034681790328719 17.2124891681027847
 38.5143429412182670 38.0034681790328719 20.0974848353438986
 38.5143429412182670 38.0034681790328719 22.9824805025850125
 38.5143429412182670 38.0034681790328719 25.8674761698261264
 38.5143429412182670 38.0034681790328719 28.7524718370672403
 38.5143429412182670 38.0034681790328719 31.6374675043083542
 38.5143429412182670 38.0034681790328719 34.5224631715494681
 38.5143429412182670 38.0034681790328719 37.4074588387905820
 38.5143429412182670 38.0034681790328719 40.2924545060316959
 36.1381476961167465 39.7298750794432465 14.3274935008616708
 36.1381476961167465 39.7298750794432465 17.2124891681027847
 36.1381476961167465 39.7298750794432465 20.0974848353438986
 36.1381476961167465 39.7298750794432465 22.9824805025850125
 36.1381476961167465 39.7298750794432465 25.8674761698261264
 36.1381476961167465 39.7298750794432465 28.7524718370672403
 36.1381476961167465 39.7298750794432465 31.6374675043083542
 36.1381476961167465 39.7298750794432465 34.5224631715494681
 36.1381476961167465 39.7298750794432465 37.4074588387905820
 36.1381476961167465 39.7298750794432465 40.2924545060316959
 33.7619524510152260 38.0034681790328719 14.3274935008616708
 33.7619524510152260 38.0034681790328719 17.2124891681027847
 33.7619524510152260 38.0034681790328719 20.0974848353438986
 33.7619524510152260 38.0034681790328719 22.9824805025850125
 33.7619524510152260 38.0034681790328719 25.8674761698261264
 33.7619524510152260 38.0034681790328719 28.7524718370672403
 33.7619524510152260 38.0034681790328719 31.6374675043083542
 33.7619524510152260 38.0034681790328719 34.5224631715494681
 33.7619524510152260 38.0034681790328719 37.4074588387905820
 33.7619524510152260 38.0034681790328719 40.2924545060316959
 31.3857572059137020 36.2770612786224902 14.3274935008616708
 31.3857572059137020 36.2770612786224902 17.2124891681027847
 31.3857572059137020 36.2770612786224902 20.0974848353438986
 31.3857572059137020 36.2770612786224902 22.9824805025850125
 31.3857572059137020 36.2770612786224902 25.8674761698261264
 31.3857572059137020 36.2770612786224902 28.7524718370672403
 31.3857572059137020 36.2770612786224902 31.6374675043083542
 31.3857572059137020 36.2770612786224902 34.5224631715494681
 31.3857572059137020 36.2770612786224902 37.4074588387905820
 31.3857572059137020 36.2770612786224902 40.2924545060316959
 29.0095619608121780 34.5506543782121156 14.3274935008616708
 29.0095619608121780 34.5506543782121156 17.2124891681027847
 29.0095619608121780 34.5506543782121156 20.0974848353438986
 29.0095619608121780 34.5506543782121156 22.9824805025850125
 29.0095619608121780 34.5506543782121156 25.8674761698261264
 29.0095619608121780 34.5506543782121156 28.7524718370672403
 29.0095619608121780 34.5506543782121156 31.6374675043083542
 29.0095619608121780 34.5506543782121156 34.5224631715494681
 29.0095619608121780 34.5506543782121156 37.4074588387905820
 29.0095619608121780 34.5506543782121156 40.2924545060316959
 29.9171877805350732 31.7572693349357671 14.3274935008616708
 29.9171877805350732 31.7572693349357671 17.2124891681027847
 29.9171877805350732 31.7572693349357671 20.0974848353438986
 29.9171877805350732 31.7572693349357671 22.9824805025850125
 29.9171877805350732 31.7572693349357671 25.8674761698261264
 29.9171877805350732 31.7572693349357671 28.7524718370672403
 29.9171877805350732 31.7572693349357671 31.6374675043083542
 29.9171877805350732 31.7572693349357671 34.5224631715494681
 29.9171877805350732 31.7572693349357671 37.4074588387905820
 29.9171877805350732 31.7572693349357671 40.2924545060316959
 30.8248136002579685 28.9638842916594186 14.3274935008616708
 30.8248136002579685 28.9638842916594186 17.2124891681027847
 30.8248136002579685 28.9638842916594186 20.0974848353438986
 30.8248136002579685 28.9638842916594186 22.9824805025850125
 30.8248136002579685 28.9638842916594186 25.8674761698261264
 30.8248136002579685 28.9638842916594186 28.7524718370672403
 30.8248136002579685 28.9638842916594186 31.6374675043083542
 30.8248136002579685 28.9638842916594186 34.5224631715494681
 30.8248136002579685 28.9638842916594186 37.4074588387905820
 30.8248136002579685 28.9638842916594186 40.2924545060316959
 31.7324394199808637 26.1704992483830736 14.3274935008616708
 31.7324394199808637 26.1704992483830736 17.2124891681027847
 31.7324394199808637 26.1704992483830736 20.0974848353438986
 31.7324394199808637 26.1704992483830736 22.9824805025850125
 31.7324394199808637 26.1704992483830736 25.8674761698261264
 31.7324394199808637 26.1704992483830736 28.7524718370672403
 31.7324394199808637 26.1704992483830736 31.6374675043083542
 31.7324394199808637 26.1704992483830736 34.5224631715494681
 31.7324394199808637 26.1704992483830736 37.4074588387905820
 31.7324394199808637 26.1704992483830736 40.2924545060316959
 34.6695782707381142 26.1704992483830736 14.3274935008616708
 34.6695782707381142 26.1704992483830736 17.2124891681027847
 34.6695782707381142 26.1704992483830736 20.0974848353438986
 34.6695782707381142 26.1704992483830736 22.9824805025850125
 34.6695782707381142 26.1704992483830736 25.8674761698261264
 34.6695782707381142 26.1704992483830736 28.7524718370672403
 34.6695782707381142 26.1704992483830736 31.6374675043083542
 34.6695782707381142 26.1704992483830736 34.5224631715494681
 34.6695782707381142 26.1704992483830736 37.4074588387905820
 34.6695782707381142 26.1704992483830736 40.2924545060316959
 37.6067171214953717 26.1704992483830736 14.3274935008616708
 37.6067171214953717 26.1704992483830736 17.2124891681027847
 37.6067171214953717 26.1704992483830736 20.0974848353438986
 37.6067171214953717 26.1704992483830736 22.9824805025850125
 37.6067171214953717 26.1704992483830736 25.8674761698261264
 37.6067171214953717 26.1704992483830736 28.7524718370672403
 37.6067171214953717 26.1704992483830736 31.6374675043083542
 37.6067171214953717 26.1704992483830736 34.5224631715494681
 37.6067171214953717 26.1704992483830736 37.4074588387905820
 37.6067171214953717 26.1704992483830736 40.2924545060316959
 40.5438559722526293 26.1704992483830701 14.3274935008616708
 40.5438559722526293 26.1704992483830701 17.2124891681027847
 40.5438559722526293 26.1704992483830701 20.0974848353438986
 40.5438559722526293 26.1704992483830701 22.9824805025850125
 40.5438559722526293 26.1704992483830701 25.8674761698261264
 40.5438559722526293 26.1704992483830701 28.7524718370672403
 40.5438559722526293 26.1704992483830701 31.6374675043083542
 40.5438559722526293 26.1704992483830701 34.5224631715494681
 40.5438559722526293 26.1704992483830701 37.4074588387905820
 40.5438559722526293 26.1704992483830701 40.2924545060316959
 41.4514817919755245 28.9638842916594186 14.3274935008616708
 41.4514817919755245 28.9638842916594186 17.2124891681027847
 41.4514817919755245 28.9638842916594186 20.0974848353438986
 41.4514817919755245 28.9638842916594186 22.9824805025850125
 41.4514817919755245 28.9638842916594186 25.8674761698261264
 41.4514817919755245 28.9638842916594186 28.7524718370672403
 41.4514817919755245 28.9638842916594186 31.6374675043083542
 41.4514817919755245 28.9638842916594186 34.5224631715494681
 41.4514817919755245 28.9638842916594186 37.4074588387905820
 41.4514817919755245 28.9638842916594186 40.2924545060316959
 42.3591076116984198 31.7572693349357635 14.3274935008616708
 42.3591076116984198 31.7572693349357635 17.2124891681027847
 42.3591076116984198 31.7572693349357635 20.0974848353438986
 42.3591076116984198 31.7572693349357635 22.9824805025850125
 42.3591076116984198 31.7572693349357635 25.8674761698261264
 42.3591076116984198 31.7572693349357635 28.7524718370672403
 42.3591076116984198 31.7572693349357635 31.6374675043083542
 42.3591076116984198 31.7572693349357635 34.5224631715494681
 42.3591076116984198 31.7572693349357635 37.4074588387905820
 42.3591076116984198 31.7572693349357635 40.2924545060316959
 45.6429286765228355 35.3227270154405772 15.7699913344822278
 45.6429286765228355 35.3227270154405772 18.6549870017233417
 45.6429286765228355 35.3227270154405772 21.5399826689644556
 45.6429286765228355 35.3227270154405772 24.4249783362055695
 45.6429286765228355 35.3227270154405772 27.3099740034466834
 45.6429286765228355 35.3227270154405772 30.1949696706877972
 45.6429286765228355 35.3227270154405772 33.0799653379289111
 45.6429286765228355 35.3227270154405772 35.9649610051700250
 45.6429286765228355 35.3227270154405772 38.8499566724111389
 43.2667334314213150 37.0491339158509518 15.7699913344822278
 43.2667334314213150 37.0491339158509518 18.6549870017233417
 43.2667334314213150 37.0491339158509518 21.5399826689644556
 43.2667334314213150 37.0491339158509518 24.4249783362055695
 43.2667334314213150 37.0491339158509518 27.3099740034466834
 43.2667334314213150 37.0491339158509518 30.1949696706877972
 43.2667334314213150 37.0491339158509518 33.0799653379289111
 43.2667334314213150 37.0491339158509518 35.9649610051700250
 43.2667334314213150 37.0491339158509518 38.8499566724111389
 40.8905381863197945 38.7755408162613335 15.7699913344822278
 40.8905381863197945 38.7755408162613335 18.6549870017233417
 40.8905381863197945 38.7755408162613335 21.5399826689644556
 40.8905381863197945 38.7755408162613335 24.4249783362055695
 40.8905381863197945 38.7755408162613335 27.3099740034466834
 40.8905381863197945 38.7755408162613335 30.1949696706877972
 40.8905381863197945 38.7755408162613335 33.0799653379289111
 40.8905381863197945 38.7755408162613335 35.9649610051700250
 40.8905381863197945 38.7755408162613335 38.8499566724111389
 38.5143429412182670 40.5019477166717081 15.7699913344822278
 38.5143429412182670 40.5019477166717081 18.6549870017233417
 38.5143429412182670 40.5019477166717081 21.5399826689644556
 38.5143429412182670 40.5019477166717081 24.4249783362055695
 38.5143429412182670 40.5019477166717081 27.3099740034466834
 38.5143429412182670 40.5019477166717081 30.1949696706877972
 38.5143429412182670 40.5019477166717081 33.0799653379289111
 38.5143429412182670 40.5019477166717081 35.9649610051700250
 38.5143429412182670 40.5019477166717081 38.8499566724111389
 36.1381476961167465 42.2283546170820898 15.7699913344822278
 36.1381476961167465 42.2283546170820898 18.6549870017233417
 36.1381476961167465 42.2283546170820898 21.5399826689644556
 36.1381476961167465 42.2283546170820898 24.4249783362055695
 36.1381476961167465 42.2283546170820898 27.3099740034466834
 36.1381476961167465 42.2283546170820898 30.1949696706877972
 36.1381476961167465 42.2283546170820898 33.0799653379289111
 36.1381476961167465 42.2283546170820898 35.9649610051700250
 36.1381476961167465 42.2283546170820898 38.8499566724111389
 33.7619524510152260 40.5019477166717081 15.7699913344822278
 33.7619524510152260 40.5019477166717081 18.6549870017233417
 33.7619524510152260 40.5019477166717081 21.5399826689644556
 33.7619524510152260 40.5019477166717081 24.4249783362055695
 33.7619524510152260 40.5019477166717081 27.3099740034466834
 33.7619524510152260 40.5019477166717081 30.1949696706877972
 33.7619524510152260 40.5019477166717081 33.0799653379289111
 33.7619524510152260 40.5019477166717081 35.9649610051700250
 33.7619524510152260 40.5019477166717081 38.8499566724111389
 31.3857572059137020 38.7755408162613335 15.7699913344822278
 31.3857572059137020 38.7755408162613335 18.6549870017233417
 31.3857572059137020 38.7755408162613335 21.5399826689644556
 31.3857572059137020 38.7755408162613335 24.4249783362055695
 31.3857572059137020 38.7755408162613335 27.3099740034466834
 31.3857572059137020 38.7755408162613335 30.1949696706877972
 31.3857572059137020 38.7755408162613335 33.0799653379289111
 31.3857572059137020 38.7755408162613335 35.9649610051700250
 31.3857572059137020 38.7755408162613335 38.8499566724111389
 29.0095619608121780 37.0491339158509589 15.7699913344822278
 29.0095619608121780 37.0491339158509589 18.6549870017233417
 29.0095619608121780 37.0491339158509589 21.5399826689644556
 29.0095619608121780 37.0491339158509589 24.4249783362055695
 29.0095619608121780 37.0491339158509589 27.3099740034466834
 29.0095619608121780 37.0491339158509589 30.1949696706877972
 29.0095619608121780 37.0491339158509589 33.0799653379289111
 29.0095619608121780 37.0491339158509589 35.9649610051700250
 29.0095619608121780 37.0491339158509589 38.8499566724111389
 26.6333667157106575 35.3227270154405772 15.7699913344822278
 26.6333667157106575 35.3227270154405772 18.6549870017233417
 26.6333667157106575 35.3227270154405772 21.5399826689644556
 26.6333667157106575 35.3227270154405772 24.4249783362055695
 26.6333667157106575 35.3227270154405772 27.3099740034466834
 26.6333667157106575 35.3227270154405772 30.1949696706877972
 26.6333667157106575 35.3227270154405772 33.0799653379289111
 26.6333667157106575 35.3227270154405772 35.9649610051700250
 26.6333667157106575 35.3227270154405772 38.8499566724111389
 27.5409925354335492 32.5293419721642323 15.7699913344822278
 27.5409925354335492 32.5293419721642323 18.6549870017233417
 27.5409925354335492 32.5293419721642323 21.5399826689644556
 27.5409925354335492 32.5293419721642323 24.4249783362055695
 27.5409925354335492 32.5293419721642323 27.3099740034466834
 27.5409925354335492 32.5293419721642323 30.1949696706877972
 27.5409925354335492 32.5293419721642323 33.0799653379289111
 27.5409925354335492 32.5293419721642323 35.9649610051700250
 27.5409925354335492 32.5293419721642323 38.8499566724111389
 28.4486183551564444 29.7359569288878838 15.7699913344822278
 28.4486183551564444 29.7359569288878838 18.6549870017233417
 28.4486183551564444 29.7359569288878838 21.5399826689644556
 28.4486183551564444 29.7359569288878838 24.4249783362055695
 28.4486183551564444 29.7359569288878838 27.3099740034466834
 28.4486183551564444 29.7359569288878838 30.1949696706877972
 28.4486183551564444 29.7359569288878838 33.0799653379289111
 28.4486183551564444 29.7359569288878838 35.9649610051700250
 28.4486183551564444 29.7359569288878838 38.8499566724111389
 29.3562441748793397 26.9425718856115353 15.7699913344822278
 29.3562441748793397 26.9425718856115353 18.6549870017233417
 29.3562441748793397 26.9425718856115353 21.5399826689644556
 29.3562441748793397 26.9425718856115353 24.4249783362055695
 29.3562441748793397 26.9425718856115353 27.3099740034466834
 29.3562441748793397 26.9425718856115353 30.1949696706877972
 29.3562441748793397 26.9425718856115353 33.0799653379289111
 29.3562441748793397 26.9425718856115353 35.9649610051700250
 29.3562441748793397 26.9425718856115353 38.8499566724111389
 30.2638699946022314 24.1491868423351903 15.7699913344822278
 30.2638699946022314 24.1491868423351903 18.6549870017233417
 30.2638699946022314 24.1491868423351903 21.5399826689644556
 30.2638699946022314 24.1491868423351903 24.4249783362055695
 30.2638699946022314 24.1491868423351903 27.3099740034466834
 30.2638699946022314 24.1491868423351903 30.1949696706877972
 30.2638699946022314 24.1491868423351903 33.0799653379289111
 30.2638699946022314 24.1491868423351903 35.9649610051700250
 30.2638699946022314 24.1491868423351903 38.8499566724111389
 33.2010088453594889 24.1491868423351868 15.7699913344822278
 33.2010088453594889 24.1491868423351868 18.6549870017233417
 33.2010088453594889 24.1491868423351868 21.5399826689644556
 33.2010088453594889 24.1491868423351868 24.4249783362055695
 33.2010088453594889 24.1491868423351868 27.3099740034466834
 33.2010088453594889 24.1491868423351868 30.1949696706877972
 33.2010088453594889 24.1491868423351868 33.0799653379289111
 33.2010088453594889 24.1491868423351868 35.9649610051700250
 33.2010088453594889 24.1491868423351868 38.8499566724111389
 36.1381476961167465 24.1491868423351868 15.7699913344822278
 36.1381476961167465 24.1491868423351868 18.6549870017233417
 36.1381476961167465 24.1491868423351868 21.5399826689644556
 36.1381476961167465 24.1491868423351868 24.4249783362055695
 36.1381476961167465 24.1491868423351868 27.3099740034466834
 36.1381476961167465 24.1491868423351868 30.1949696706877972
 36.1381476961167465 24.1491868423351868 33.0799653379289111
 36.1381476961167465 24.1491868423351868 35.9649610051700250
 36.1381476961167465 24.1491868423351868 38.8499566724111389
 39.0752865468740040 24.1491868423351868 15.7699913344822278
 39.0752865468740040 24.1491868423351868 18.6549870017233417
 39.0752865468740040 24.1491868423351868 21.5399826689644556
 39.0752865468740040 24.1491868423351868 24.4249783362055695
 39.0752865468740040 24.1491868423351868 27.3099740034466834
 39.0752865468740040 24.1491868423351868 30.1949696706877972
 39.0752865468740040 24.1491868423351868 33.0799653379289111
 39.0752865468740040 24.1491868423351868 35.9649610051700250
 39.0752865468740040 24.1491868423351868 38.8499566724111389
 42.0124253976312545 24.1491868423351868 15.7699913344822278
 42.0124253976312545 24.1491868423351868 18.6549870017233417
 42.0124253976312545 24.1491868423351868 21.5399826689644556
 42.0124253976312545 24.1491868423351868 24.4249783362055695
 42.0124253976312545 24.1491868423351868 27.3099740034466834
 42.0124253976312545 24.1491868423351868 30.1949696706877972
 42.0124253976312545 24.1491868423351868 33.0799653379289111
 42.0124253976312545 24.1491868423351868 35.9649610051700250
 42.0124253976312545 24.1491868423351868 38.8499566724111389
 42.9200512173541497 26.9425718856115353 15.7699913344822278