Au 
 1.0000000000000000
    64.8799999999999955    0.0000000000000000    0.0000000000000000
     0.0000000000000000   64.8799999999999955    0.0000000000000000
     0.0000000000000000    0.0000000000000000   64.8799999999999955
 Au 
 1156
Cartesian
 10.0000000000000000 32.4399999999999977 32.4399999999999977
 12.0399999999999991 30.3999999999999986 32.4399999999999977
 12.0399999999999991 32.4399999999999977 30.3999999999999986
 12.0399999999999991 32.4399999999999977 34.4800000000000040
 12.0399999999999991 34.4800000000000040 32.4399999999999977
 14.0799999999999983 28.3599999999999959 32.4399999999999977
 16.1199999999999974 26.3199999999999967 32.4399999999999977
 16.1199999999999974 28.3599999999999959 30.3999999999999986
 16.1199999999999974 28.3599999999999959 34.4800000000000040
 14.0799999999999983 32.4399999999999977 28.3599999999999959
 16.1199999999999974 30.3999999999999986 28.3599999999999959
 16.1199999999999974 32.4399999999999977 26.3199999999999967
 14.0799999999999983 30.3999999999999986 30.3999999999999986
 14.0799999999999983 32.4399999999999977 32.4399999999999977
 16.1199999999999974 30.3999999999999986 32.4399999999999977
 16.1199999999999974 32.4399999999999977 30.3999999999999986
 14.0799999999999983 30.3999999999999986 34.4800000000000040
 14.0799999999999983 32.4399999999999977 36.5199999999999960
 16.1199999999999974 30.3999999999999986 36.5199999999999960
 16.1199999999999974 32.4399999999999977 34.4800000000000040
 16.1199999999999974 32.4399999999999977 38.5600000000000023
 16.1199999999999974 34.4800000000000040 28.3599999999999959
 14.0799999999999983 34.4800000000000040 30.3999999999999986
 14.0799999999999983 36.5199999999999960 32.4399999999999977
 16.1199999999999974 34.4800000000000040 32.4399999999999977
 16.1199999999999974 36.5199999999999960 30.3999999999999986
 14.0799999999999983 34.4800000000000040 34.4800000000000040
 16.1199999999999974 34.4800000000000040 36.5199999999999960
 16.1199999999999974 36.5199999999999960 34.4800000000000040
 16.1199999999999974 38.5600000000000023 32.4399999999999977
 18.1599999999999966 24.2799999999999976 32.4399999999999977
 20.1999999999999993 22.2399999999999984 32.4399999999999977
 20.1999999999999993 24.2799999999999976 30.3999999999999986
 20.1999999999999993 24.2799999999999976 34.4800000000000040
 18.1599999999999966 28.3599999999999959 28.3599999999999959
 20.1999999999999993 26.3199999999999967 28.3599999999999959
 20.1999999999999993 28.3599999999999959 26.3199999999999967
 18.1599999999999966 26.3199999999999967 30.3999999999999986
 18.1599999999999966 28.3599999999999959 32.4399999999999977
 20.1999999999999993 26.3199999999999967 32.4399999999999977
 20.1999999999999993 28.3599999999999959 30.3999999999999986
 18.1599999999999966 26.3199999999999967 34.4800000000000040
 18.1599999999999966 28.3599999999999959 36.5199999999999960
 20.1999999999999993 26.3199999999999967 36.5199999999999960
 20.1999999999999993 28.3599999999999959 34.4800000000000040
 20.1999999999999993 28.3599999999999959 38.5600000000000023
 18.1599999999999966 32.4399999999999977 24.2799999999999976
 20.1999999999999993 30.3999999999999986 24.2799999999999976
 20.1999999999999993 32.4399999999999977 22.2399999999999984
 18.1599999999999966 30.3999999999999986 26.3199999999999967
 18.1599999999999966 32.4399999999999977 28.3599999999999959
 20.1999999999999993 30.3999999999999986 28.3599999999999959
 20.1999999999999993 32.4399999999999977 26.3199999999999967
 18.1599999999999966 30.3999999999999986 30.3999999999999986
 18.1599999999999966 32.4399999999999977 32.4399999999999977
 20.1999999999999993 30.3999999999999986 32.4399999999999977
 20.1999999999999993 32.4399999999999977 30.3999999999999986
 18.1599999999999966 30.3999999999999986 34.4800000000000040
 18.1599999999999966 32.4399999999999977 36.5199999999999960
 20.1999999999999993 30.3999999999999986 36.5199999999999960
 20.1999999999999993 32.4399999999999977 34.4800000000000040
 18.1599999999999966 30.3999999999999986 38.5600000000000023
 18.1599999999999966 32.4399999999999977 40.5999999999999943
 20.1999999999999993 30.3999999999999986 40.5999999999999943
 20.1999999999999993 32.4399999999999977 38.5600000000000023
 20.1999999999999993 32.4399999999999977 42.6400000000000006
 20.1999999999999993 34.4800000000000040 24.2799999999999976
 18.1599999999999966 34.4800000000000040 26.3199999999999967
 18.1599999999999966 36.5199999999999960 28.3599999999999959
 20.1999999999999993 34.4800000000000040 28.3599999999999959
 20.1999999999999993 36.5199999999999960 26.3199999999999967
 18.1599999999999966 34.4800000000000040 30.3999999999999986
 18.1599999999999966 36.5199999999999960 32.4399999999999977
 20.1999999999999993 34.4800000000000040 32.4399999999999977
 20.1999999999999993 36.5199999999999960 30.3999999999999986
 18.1599999999999966 34.4800000000000040 34.4800000000000040
 18.1599999999999966 36.5199999999999960 36.5199999999999960
 20.1999999999999993 34.4800000000000040 36.5199999999999960
 20.1999999999999993 36.5199999999999960 34.4800000000000040
 18.1599999999999966 34.4800000000000040 38.5600000000000023
 20.1999999999999993 34.4800000000000040 40.5999999999999943
 20.1999999999999993 36.5199999999999960 38.5600000000000023
 20.1999999999999993 38.5600000000000023 28.3599999999999959
 18.1599999999999966 38.5600000000000023 30.3999999999999986
 18.1599999999999966 40.5999999999999943 32.4399999999999977
 20.1999999999999993 38.5600000000000023 32.4399999999999977
 20.1999999999999993 40.5999999999999943 30.3999999999999986
 18.1599999999999966 38.5600000000000023 34.4800000000000040
 20.1999999999999993 38.5600000000000023 36.5199999999999960
 20.1999999999999993 40.5999999999999943 34.4800000000000040
 20.1999999999999993 42.6400000000000006 32.4399999999999977
 22.2399999999999984 20.1999999999999993 32.4399999999999977
 24.2799999999999976 18.1599999999999966 32.4399999999999977
 24.2799999999999976 20.1999999999999993 30.3999999999999986
 24.2799999999999976 20.1999999999999993 34.4800000000000040
 22.2399999999999984 24.2799999999999976 28.3599999999999959
 24.2799999999999976 22.2399999999999984 28.3599999999999959
 24.2799999999999976 24.2799999999999976 26.3199999999999967
 22.2399999999999984 22.2399999999999984 30.3999999999999986
 22.2399999999999984 24.2799999999999976 32.4399999999999977
 24.2799999999999976 22.2399999999999984 32.4399999999999977
 24.2799999999999976 24.2799999999999976 30.3999999999999986
 22.2399999999999984 22.2399999999999984 34.4800000000000040
 22.2399999999999984 24.2799999999999976 36.5199999999999960
 24.2799999999999976 22.2399999999999984 36.5199999999999960
 24.2799999999999976 24.2799999999999976 34.4800000000000040
 24.2799999999999976 24.2799999999999976 38.5600000000000023
 22.2399999999999984 28.3599999999999959 24.2799999999999976
 24.2799999999999976 26.3199999999999967 24.2799999999999976
 24.2799999999999976 28.3599999999999959 22.2399999999999984
 22.2399999999999984 26.3199999999999967 26.3199999999999967
 22.2399999999999984 28.3599999999999959 28.3599999999999959
 24.2799999999999976 26.3199999999999967 28.3599999999999959
 24.2799999999999976 28.3599999999999959 26.3199999999999967
 22.2399999999999984 26.3199999999999967 30.3999999999999986
 22.2399999999999984 28.3599999999999959 32.4399999999999977
 24.2799999999999976 26.3199999999999967 32.4399999999999977
 24.2799999999999976 28.3599999999999959 30.3999999999999986
 22.2399999999999984 26.3199999999999967 34.4800000000000040
 22.2399999999999984 28.3599999999999959 36.5199999999999960
 24.2799999999999976 26.3199999999999967 36.5199999999999960
 24.2799999999999976 28.3599999999999959 34.4800000000000040
 22.2399999999999984 26.3199999999999967 38.5600000000000023
 22.2399999999999984 28.3599999999999959 40.5999999999999943
 24.2799999999999976 26.3199999999999967 40.5999999999999943
 24.2799999999999976 28.3599999999999959 38.5600000000000023
 24.2799999999999976 28.3599999999999959 42.6400000000000006
 22.2399999999999984 32.4399999999999977 20.1999999999999993
 24.2799999999999976 30.3999999999999986 20.1999999999999993
 24.2799999999999976 32.4399999999999977 18.1599999999999966
 22.2399999999999984 30.3999999999999986 22.2399999999999984
 22.2399999999999984 32.4399999999999977 24.2799999999999976
 24.2799999999999976 30.3999999999999986 24.2799999999999976
 24.2799999999999976 32.4399999999999977 22.2399999999999984
 22.2399999999999984 30.3999999999999986 26.3199999999999967
 22.2399999999999984 32.4399999999999977 28.3599999999999959
 24.2799999999999976 30.3999999999999986 28.3599999999999959
 24.2799999999999976 32.4399999999999977 26.3199999999999967
 22.2399999999999984 30.3999999999999986 30.3999999999999986
 22.2399999999999984 32.4399999999999977 32.4399999999999977
 24.2799999999999976 30.3999999999999986 32.4399999999999977
 24.2799999999999976 32.4399999999999977 30.3999999999999986
 22.2399999999999984 30.3999999999999986 34.4800000000000040
 22.2399999999999984 32.4399999999999977 36.5199999999999960
 24.2799999999999976 30.3999999999999986 36.5199999999999960
 24.2799999999999976 32.4399999999999977 34.4800000000000040
 22.2399999999999984 30.3999999999999986 38.5600000000000023
 22.2399999999999984 32.4399999999999977 40.5999999999999943
 24.2799999999999976 30.3999999999999986 40.5999999999999943
 24.2799999999999976 32.4399999999999977 38.5600000000000023
 22.2399999999999984 30.3999999999999986 42.6400000000000006
 22.2399999999999984 32.4399999999999977 44.6799999999999926
 24.2799999999999976 30.3999999999999986 44.6799999999999926
 24.2799999999999976 32.4399999999999977 42.6400000000000006
 24.2799999999999976 32.4399999999999977 46.7199999999999989
 24.2799999999999976 34.4800000000000040 20.1999999999999993
 22.2399999999999984 34.4800000000000040 22.2399999999999984
 22.2399999999999984 36.5199999999999960 24.2799999999999976
 24.2799999999999976 34.4800000000000040 24.2799999999999976
 24.2799999999999976 36.5199999999999960 22.2399999999999984
 22.2399999999999984 34.4800000000000040 26.3199999999999967
 22.2399999999999984 36.5199999999999960 28.3599999999999959
 24.2799999999999976 34.4800000000000040 28.3599999999999959
 24.2799999999999976 36.5199999999999960 26.3199999999999967
 22.2399999999999984 34.4800000000000040 30.3999999999999986
 22.2399999999999984 36.5199999999999960 32.4399999999999977
 24.2799999999999976 34.4800000000000040 32.4399999999999977
 24.2799999999999976 36.5199999999999960 30.3999999999999986
 22.2399999999999984 34.4800000000000040 34.4800000000000040
 22.2399999999999984 36.5199999999999960 36.5199999999999960
 24.2799999999999976 34.4800000000000040 36.5199999999999960
 24.2799999999999976 36.5199999999999960 34.4800000000000040
 22.2399999999999984 34.4800000000000040 38.5600000000000023
 22.2399999999999984 36.5199999999999960 40.5999999999999943
 24.2799999999999976 34.4800000000000040 40.5999999999999943
 24.2799999999999976 36.5199999999999960 38.5600000000000023
 22.2399999999999984 34.4800000000000040 42.6400000000000006
 24.2799999999999976 34.4800000000000040 44.6799999999999926
 24.2799999999999976 36.5199999999999960 42.6400000000000006
 24.2799999999999976 38.5600000000000023 24.2799999999999976
 22.2399999999999984 38.5600000000000023 26.3199999999999967
 22.2399999999999984 40.5999999999999943 28.3599999999999959
 24.2799999999999976 38.5600000000000023 28.3599999999999959
 24.2799999999999976 40.5999999999999943 26.3199999999999967
 22.2399999999999984 38.5600000000000023 30.3999999999999986
 22.2399999999999984 40.5999999999999943 32.4399999999999977
 24.2799999999999976 38.5600000000000023 32.4399999999999977
 24.2799999999999976 40.5999999999999943 30.3999999999999986
 22.2399999999999984 38.5600000000000023 34.4800000000000040
 22.2399999999999984 40.5999999999999943 36.5199999999999960
 24.2799999999999976 38.5600000000000023 36.5199999999999960
 24.2799999999999976 40.5999999999999943 34.4800000000000040
 22.2399999999999984 38.5600000000000023 38.5600000000000023
 24.2799999999999976 38.5600000000000023 40.5999999999999943
 24.2799999999999976 40.5999999999999943 38.5600000000000023
 24.2799999999999976 42.6400000000000006 28.3599999999999959
 22.2399999999999984 42.6400000000000006 30.3999999999999986
 22.2399999999999984 44.6799999999999926 32.4399999999999977
 24.2799999999999976 42.6400000000000006 32.4399999999999977
 24.2799999999999976 44.6799999999999926 30.3999999999999986
 22.2399999999999984 42.6400000000000006 34.4800000000000040
 24.2799999999999976 42.6400000000000006 36.5199999999999960
 24.2799999999999976 44.6799999999999926 34.4800000000000040
 24.2799999999999976 46.7199999999999989 32.4399999999999977
 26.3199999999999967 16.1199999999999974 32.4399999999999977
 28.3599999999999959 14.0799999999999983 32.4399999999999977
 28.3599999999999959 16.1199999999999974 30.3999999999999986
 28.3599999999999959 16.1199999999999974 34.4800000000000040
 26.3199999999999967 20.1999999999999993 28.3599999999999959
 28.3599999999999959 18.1599999999999966 28.3599999999999959
 28.3599999999999959 20.1999999999999993 26.3199999999999967
 26.3199999999999967 18.1599999999999966 30.3999999999999986
 26.3199999999999967 20.1999999999999993 32.4399999999999977
 28.3599999999999959 18.1599999999999966 32.4399999999999977
 28.3599999999999959 20.1999999999999993 30.3999999999999986
 26.3199999999999967 18.1599999999999966 34.4800000000000040
 26.3199999999999967 20.1999999999999993 36.5199999999999960
 28.3599999999999959 18.1599999999999966 36.5199999999999960
 28.3599999999999959 20.1999999999999993 34.4800000000000040
 28.3599999999999959 20.1999999999999993 38.5600000000000023
 26.3199999999999967 24.2799999999999976 24.2799999999999976
 28.3599999999999959 22.2399999999999984 24.2799999999999976
 28.3599999999999959 24.2799999999999976 22.2399999999999984
 26.3199999999999967 22.2399999999999984 26.3199999999999967
 26.3199999999999967 24.2799999999999976 28.3599999999999959
 28.3599999999999959 22.2399999999999984 28.3599999999999959
 28.3599999999999959 24.2799999999999976 26.3199999999999967
 26.3199999999999967 22.2399999999999984 30.3999999999999986
 26.3199999999999967 24.2799999999999976 32.4399999999999977
 28.3599999999999959 22.2399999999999984 32.4399999999999977
 28.3599999999999959 24.2799999999999976 30.3999999999999986
 26.3199999999999967 22.2399999999999984 34.4800000000000040
 26.3199999999999967 24.2799999999999976 36.5199999999999960
 28.3599999999999959 22.2399999999999984 36.5199999999999960
 28.3599999999999959 24.2799999999999976 34.4800000000000040
 26.3199999999999967 22.2399999999999984 38.5600000000000023
 26.3199999999999967 24.2799999999999976 40.5999999999999943
 28.3599999999999959 22.2399999999999984 40.5999999999999943
 28.3599999999999959 24.2799999999999976 38.5600000000000023
 28.3599999999999959 24.2799999999999976 42.6400000000000006
 26.3199999999999967 28.3599999999999959 20.1999999999999993
 28.3599999999999959 26.3199999999999967 20.1999999999999993
 28.3599999999999959 28.3599999999999959 18.1599999999999966
 26.3199999999999967 26.3199999999999967 22.2399999999999984
 26.3199999999999967 28.3599999999999959 24.2799999999999976
 28.3599999999999959 26.3199999999999967 24.2799999999999976
 28.3599999999999959 28.3599999999999959 22.2399999999999984
 26.3199999999999967 26.3199999999999967 26.3199999999999967
 26.3199999999999967 28.3599999999999959 28.3599999999999959
 28.3599999999999959 26.3199999999999967 28.3599999999999959
 28.3599999999999959 28.3599999999999959 26.3199999999999967
 26.3199999999999967 26.3199999999999967 30.3999999999999986
 26.3199999999999967 28.3599999999999959 32.4399999999999977
 28.3599999999999959 26.3199999999999967 32.4399999999999977
 28.3599999999999959 28.3599999999999959 30.3999999999999986
 26.3199999999999967 26.3199999999999967 34.4800000000000040
 26.3199999999999967 28.3599999999999959 36.5199999999999960
 28.3599999999999959 26.3199999999999967 36.5199999999999960
 28.3599999999999959 28.3599999999999959 34.4800000000000040
 26.3199999999999967 26.3199999999999967 38.5600000000000023
 26.3199999999999967 28.3599999999999959 40.5999999999999943
 28.3599999999999959 26.3199999999999967 40.5999999999999943
 28.3599999999999959 28.3599999999999959 38.5600000000000023
 26.3199999999999967 26.3199999999999967 42.6400000000000006
 26.3199999999999967 28.3599999999999959 44.6799999999999926
 28.3599999999999959 26.3199999999999967 44.6799999999999926
 28.3599999999999959 28.3599999999999959 42.6400000000000006
 28.3599999999999959 28.3599999999999959 46.7199999999999989
 26.3199999999999967 32.4399999999999977 16.1199999999999974
 28.3599999999999959 30.3999999999999986 16.1199999999999974
 28.3599999999999959 32.4399999999999977 14.0799999999999983
 26.3199999999999967 30.3999999999999986 18.1599999999999966
 26.3199999999999967 32.4399999999999977 20.1999999999999993
 28.3599999999999959 30.3999999999999986 20.1999999999999993
 28.3599999999999959 32.4399999999999977 18.1599999999999966
 26.3199999999999967 30.3999999999999986 22.2399999999999984
 26.3199999999999967 32.4399999999999977 24.2799999999999976
 28.3599999999999959 30.3999999999999986 24.2799999999999976
 28.3599999999999959 32.4399999999999977 22.2399999999999984
 26.3199999999999967 30.3999999999999986 26.3199999999999967
 26.3199999999999967 32.4399999999999977 28.3599999999999959
 28.3599999999999959 30.3999999999999986 28.3599999999999959
 28.3599999999999959 32.4399999999999977 26.3199999999999967
 26.3199999999999967 30.3999999999999986 30.3999999999999986
 26.3199999999999967 32.4399999999999977 32.4399999999999977
 28.3599999999999959 30.3999999999999986 32.4399999999999977
 28.3599999999999959 32.4399999999999977 30.3999999999999986
 26.3199999999999967 30.3999999999999986 34.4800000000000040
 26.3199999999999967 32.4399999999999977 36.5199999999999960
 28.3599999999999959 30.3999999999999986 36.5199999999999960
 28.3599999999999959 32.4399999999999977 34.4800000000000040
 26.3199999999999967 30.3999999999999986 38.5600000000000023
 26.3199999999999967 32.4399999999999977 40.5999999999999943
 28.3599999999999959 30.3999999999999986 40.5999999999999943
 28.3599999999999959 32.4399999999999977 38.5600000000000023
 26.3199999999999967 30.3999999999999986 42.6400000000000006
 26.3199999999999967 32.4399999999999977 44.6799999999999926
 28.3599999999999959 30.3999999999999986 44.6799999999999926
 28.3599999999999959 32.4399999999999977 42.6400000000000006
 26.3199999999999967 30.3999999999999986 46.7199999999999989
 26.3199999999999967 32.4399999999999977 48.7599999999999909
 28.3599999999999959 30.3999999999999986 48.7599999999999909
 28.3599999999999959 32.4399999999999977 46.7199999999999989
 28.3599999999999959 32.4399999999999977 50.7999999999999972
 28.3599999999999959 34.4800000000000040 16.1199999999999974
 26.3199999999999967 34.4800000000000040 18.1599999999999966
 26.3199999999999967 36.5199999999999960 20.1999999999999993
 28.3599999999999959 34.4800000000000040 20.1999999999999993
 28.3599999999999959 36.5199999999999960 18.1599999999999966
 26.3199999999999967 34.4800000000000040 22.2399999999999984
 26.3199999999999967 36.5199999999999960 24.2799999999999976
 28.3599999999999959 34.4800000000000040 24.2799999999999976
 28.3599999999999959 36.5199999999999960 22.2399999999999984
 26.3199999999999967 34.4800000000000040 26.3199999999999967
 26.3199999999999967 36.5199999999999960 28.3599999999999959
 28.3599999999999959 34.4800000000000040 28.3599999999999959
 28.3599999999999959 36.5199999999999960 26.3199999999999967
 26.3199999999999967 34.4800000000000040 30.3999999999999986
 26.3199999999999967 36.5199999999999960 32.4399999999999977
 28.3599999999999959 34.4800000000000040 32.4399999999999977
 28.3599999999999959 36.5199999999999960 30.3999999999999986
 26.3199999999999967 34.4800000000000040 34.4800000000000040
 26.3199999999999967 36.5199999999999960 36.5199999999999960
 28.3599999999999959 34.4800000000000040 36.5199999999999960
 28.3599999999999959 36.5199999999999960 34.4800000000000040
 26.3199999999999967 34.4800000000000040 38.5600000000000023
 26.3199999999999967 36.5199999999999960 40.5999999999999943
 28.3599999999999959 34.4800000000000040 40.5999999999999943
 28.3599999999999959 36.5199999999999960 38.5600000000000023
 26.3199999999999967 34.4800000000000040 42.6400000000000006
 26.3199999999999967 36.5199999999999960 44.6799999999999926
 28.3599999999999959 34.4800000000000040 44.6799999999999926
 28.3599999999999959 36.5199999999999960 42.6400000000000006
 26.3199999999999967 34.4800000000000040 46.7199999999999989
 28.3599999999999959 34.4800000000000040 48.7599999999999909
 28.3599999999999959 36.5199999999999960 46.7199999999999989
 28.3599999999999959 38.5600000000000023 20.1999999999999993
 26.3199999999999967 38.5600000000000023 22.2399999999999984
 26.3199999999999967 40.5999999999999943 24.2799999999999976
 28.3599999999999959 38.5600000000000023 24.2799999999999976
 28.3599999999999959 40.5999999999999943 22.2399999999999984
 26.3199999999999967 38.5600000000000023 26.3199999999999967
 26.3199999999999967 40.5999999999999943 28.3599999999999959
 28.3599999999999959 38.5600000000000023 28.3599999999999959
 28.3599999999999959 40.5999999999999943 26.3199999999999967
 26.3199999999999967 38.5600000000000023 30.3999999999999986
 26.3199999999999967 40.5999999999999943 32.4399999999999977
 28.3599999999999959 38.5600000000000023 32.4399999999999977
 28.3599999999999959 40.5999999999999943 30.3999999999999986
 26.3199999999999967 38.5600000000000023 34.4800000000000040
 26.3199999999999967 40.5999999999999943 36.5199999999999960
 28.3599999999999959 38.5600000000000023 36.5199999999999960
 28.3599999999999959 40.5999999999999943 34.4800000000000040
 26.3199999999999967 38.5600000000000023 38.5600000000000023
 26.3199999999999967 40.5999999999999943 40.5999999999999943
 28.3599999999999959 38.5600000000000023 40.5999999999999943
 28.3599999999999959 40.5999999999999943 38.5600000000000023
 26.3199999999999967 38.5600000000000023 42.6400000000000006
 28.3599999999999959 38.5600000000000023 44.6799999999999926
 28.3599999999999959 40.5999999999999943 42.6400000000000006
 28.3599999999999959 42.6400000000000006 24.2799999999999976
 26.3199999999999967 42.6400000000000006 26.3199999999999967
 26.3199999999999967 44.6799999999999926 28.3599999999999959
 28.3599999999999959 42.6400000000000006 28.3599999999999959
 28.3599999999999959 44.6799999999999926 26.3199999999999967
 26.3199999999999967 42.6400000000000006 30.3999999999999986
 26.3199999999999967 44.6799999999999926 32.4399999999999977
 28.3599999999999959 42.6400000000000006 32.4399999999999977
 28.3599999999999959 44.6799999999999926 30.3999999999999986
 26.3199999999999967 42.6400000000000006 34.4800000000000040
 26.3199999999999967 44.6799999999999926 36.5199999999999960
 28.3599999999999959 42.6400000000000006 36.5199999999999960
 28.3599999999999959 44.6799999999999926 34.4800000000000040
 26.3199999999999967 42.6400000000000006 38.5600000000000023
 28.3599999999999959 42.6400000000000006 40.5999999999999943
 28.3599999999999959 44.6799999999999926 38.5600000000000023
 28.3599999999999959 46.7199999999999989 28.3599999999999959
 26.3199999999999967 46.7199999999999989 30.3999999999999986
 26.3199999999999967 48.7599999999999909 32.4399999999999977
 28.3599999999999959 46.7199999999999989 32.4399999999999977
 28.3599999999999959 48.7599999999999909 30.3999999999999986
 26.3199999999999967 46.7199999999999989 34.4800000000000040
 28.3599999999999959 46.7199999999999989 36.5199999999999960
 28.3599999999999959 48.7599999999999909 34.4800000000000040
 28.3599999999999959 50.7999999999999972 32.4399999999999977
 30.3999999999999986 12.0399999999999991 32.4399999999999977
 32.4399999999999977 10.0000000000000000 32.4399999999999977
 32.4399999999999977 12.0399999999999991 30.3999999999999986
 32.4399999999999977 12.0399999999999991 34.4800000000000040
 30.3999999999999986 16.1199999999999974 28.3599999999999959
 32.4399999999999977 14.0799999999999983 28.3599999999999959
 32.4399999999999977 16.1199999999999974 26.3199999999999967
 30.3999999999999986 14.0799999999999983 30.3999999999999986
 30.3999999999999986 16.1199999999999974 32.4399999999999977
 32.4399999999999977 14.0799999999999983 32.4399999999999977
 32.4399999999999977 16.1199999999999974 30.3999999999999986
 30.3999999999999986 14.0799999999999983 34.4800000000000040
 30.3999999999999986 16.1199999999999974 36.5199999999999960
 32.4399999999999977 14.0799999999999983 36.5199999999999960
 32.4399999999999977 16.1199999999999974 34.4800000000000040
 32.4399999999999977 16.1199999999999974 38.5600000000000023
 30.3999999999999986 20.1999999999999993 24.2799999999999976
 32.4399999999999977 18.1599999999999966 24.2799999999999976
 32.4399999999999977 20.1999999999999993 22.2399999999999984
 30.3999999999999986 18.1599999999999966 26.3199999999999967
 30.3999999999999986 20.1999999999999993 28.3599999999999959
 32.4399999999999977 18.1599999999999966 28.3599999999999959
 32.4399999999999977 20.1999999999999993 26.3199999999999967
 30.3999999999999986 18.1599999999999966 30.3999999999999986
 30.3999999999999986 20.1999999999999993 32.4399999999999977
 32.4399999999999977 18.1599999999999966 32.4399999999999977
 32.4399999999999977 20.1999999999999993 30.3999999999999986
 30.3999999999999986 18.1599999999999966 34.4800000000000040
 30.3999999999999986 20.1999999999999993 36.5199999999999960
 32.4399999999999977 18.1599999999999966 36.5199999999999960
 32.4399999999999977 20.1999999999999993 34.4800000000000040
 30.3999999999999986 18.1599999999999966 38.5600000000000023
 30.3999999999999986 20.1999999999999993 40.5999999999999943
 32.4399999999999977 18.1599999999999966 40.5999999999999943
 32.4399999999999977 20.1999999999999993 38.5600000000000023
 32.4399999999999977 20.1999999999999993 42.6400000000000006
 30.3999999999999986 24.2799999999999976 20.1999999999999993
 32.4399999999999977 22.2399999999999984 20.1999999999999993
 32.4399999999999977 24.2799999999999976 18.1599999999999966
 30.3999999999999986 22.2399999999999984 22.2399999999999984
 30.3999999999999986 24.2799999999999976 24.2799999999999976
 32.4399999999999977 22.2399999999999984 24.2799999999999976
 32.4399999999999977 24.2799999999999976 22.2399999999999984
 30.3999999999999986 22.2399999999999984 26.3199999999999967
 30.3999999999999986 24.2799999999999976 28.3599999999999959
 32.4399999999999977 22.2399999999999984 28.3599999999999959
 32.4399999999999977 24.2799999999999976 26.3199999999999967
 30.3999999999999986 22.2399999999999984 30.3999999999999986
 30.3999999999999986 24.2799999999999976 32.4399999999999977
 32.4399999999999977 22.2399999999999984 32.4399999999999977
 32.4399999999999977 24.2799999999999976 30.3999999999999986
 30.3999999999999986 22.2399999999999984 34.4800000000000040
 30.3999999999999986 24.2799999999999976 36.5199999999999960
 32.4399999999999977 22.2399999999999984 36.5199999999999960
 32.4399999999999977 24.2799999999999976 34.4800000000000040
 30.3999999999999986 22.2399999999999984 38.5600000000000023
 30.3999999999999986 24.2799999999999976 40.5999999999999943
 32.4399999999999977 22.2399999999999984 40.5999999999999943
 32.4399999999999977 24.2799999999999976 38.5600000000000023
 30.3999999999999986 22.2399999999999984 42.6400000000000006
 30.3999999999999986 24.2799999999999976 44.6799999999999926
 32.4399999999999977 22.2399999999999984 44.6799999999999926
 32.4399999999999977 24.2799999999999976 42.6400000000000006
 32.4399999999999977 24.2799999999999976 46.7199999999999989
 30.3999999999999986 28.3599999999999959 16.1199999999999974
 32.4399999999999977 26.3199999999999967 16.1199999999999974
 32.4399999999999977 28.3599999999999959 14.0799999999999983
 30.3999999999999986 26.3199999999999967 18.1599999999999966
 30.3999999999999986 28.3599999999999959 20.1999999999999993
 32.4399999999999977 26.3199999999999967 20.1999999999999993
 32.4399999999999977 28.3599999999999959 18.1599999999999966
 30.3999999999999986 26.3199999999999967 22.2399999999999984
 30.3999999999999986 28.3599999999999959 24.2799999999999976
 32.4399999999999977 26.3199999999999967 24.2799999999999976
 32.4399999999999977 28.3599999999999959 22.2399999999999984
 30.3999999999999986 26.3199999999999967 26.3199999999999967
 30.3999999999999986 28.3599999999999959 28.3599999999999959
 32.4399999999999977 26.3199999999999967 28.3599999999999959
 32.4399999999999977 28.3599999999999959 26.3199999999999967
 30.3999999999999986 26.3199999999999967 30.3999999999999986
 30.3999999999999986 28.3599999999999959 32.4399999999999977
 32.4399999999999977 26.3199999999999967 32.4399999999999977
 32.4399999999999977 28.3599999999999959 30.3999999999999986
 30.3999999999999986 26.3199999999999967 34.4800000000000040
 30.3999999999999986 28.3599999999999959 36.5199999999999960
 32.4399999999999977 26.3199999999999967 36.5199999999999960
 32.4399999999999977 28.3599999999999959 34.4800000000000040
 30.3999999999999986 26.3199999999999967 38.5600000000000023
 30.3999999999999986 28.3599999999999959 40.5999999999999943
 32.4399999999999977 26.3199999999999967 40.5999999999999943
 32.4399999999999977 28.3599999999999959 38.5600000000000023
 30.3999999999999986 26.3199999999999967 42.6400000000000006
 30.3999999999999986 28.3599999999999959 44.6799999999999926
 32.4399999999999977 26.3199999999999967 44.6799999999999926
 32.4399999999999977 28.3599999999999959 42.6400000000000006
 30.3999999999999986 26.3199999999999967 46.7199999999999989
 30.3999999999999986 28.3599999999999959 48.7599999999999909
 32.4399999999999977 26.3199999999999967 48.7599999999999909
 32.4399999999999977 28.3599999999999959 46.7199999999999989
 32.4399999999999977 28.3599999999999959 50.7999999999999972
 30.3999999999999986 32.4399999999999977 12.0399999999999991
 32.4399999999999977 30.3999999999999986 12.0399999999999991