Au 
 1.0000000000000000
    46.6990913017724836    0.0000000000000000    0.0000000000000000
     0.0000000000000000   45.3923447617099782    0.0000000000000000
     0.0000000000000000    0.0000000000000000   40.1949696706877972
 Au 
 383
Cartesian
 23.3495456508862418 22.1278744362873070 10.0000000000000000
 23.3495456508862418 22.1278744362873070 12.8849956672411139
 23.3495456508862418 22.1278744362873070 15.7699913344822278
 23.3495456508862418 22.1278744362873070 18.6549870017233417
 23.3495456508862418 22.1278744362873070 21.5399826689644556
 23.3495456508862418 22.1278744362873070 24.4249783362055695
 23.3495456508862418 22.1278744362873070 27.3099740034466834
 23.3495456508862418 22.1278744362873070 30.1949696706877972
 25.7257408959877658 22.8999470735157686 11.4424978336205569
 25.7257408959877658 22.8999470735157686 14.3274935008616708
 25.7257408959877658 22.8999470735157686 17.2124891681027847
 25.7257408959877658 22.8999470735157686 20.0974848353438986
 25.7257408959877658 22.8999470735157686 22.9824805025850125
 25.7257408959877658 22.8999470735157686 25.8674761698261264
 25.7257408959877658 22.8999470735157686 28.7524718370672403
 23.3495456508862418 24.6263539739261503 11.4424978336205569
 23.3495456508862418 24.6263539739261503 14.3274935008616708
 23.3495456508862418 24.6263539739261503 17.2124891681027847
 23.3495456508862418 24.6263539739261503 20.0974848353438986
 23.3495456508862418 24.6263539739261503 22.9824805025850125
 23.3495456508862418 24.6263539739261503 25.8674761698261264
 23.3495456508862418 24.6263539739261503 28.7524718370672403
 20.9733504057847178 22.8999470735157686 11.4424978336205569
 20.9733504057847178 22.8999470735157686 14.3274935008616708
 20.9733504057847178 22.8999470735157686 17.2124891681027847
 20.9733504057847178 22.8999470735157686 20.0974848353438986
 20.9733504057847178 22.8999470735157686 22.9824805025850125
 20.9733504057847178 22.8999470735157686 25.8674761698261264
 20.9733504057847178 22.8999470735157686 28.7524718370672403
 21.8809762255076130 20.1065620302394237 11.4424978336205569
 21.8809762255076130 20.1065620302394237 14.3274935008616708
 21.8809762255076130 20.1065620302394237 17.2124891681027847
 21.8809762255076130 20.1065620302394237 20.0974848353438986
 21.8809762255076130 20.1065620302394237 22.9824805025850125
 21.8809762255076130 20.1065620302394237 25.8674761698261264
 21.8809762255076130 20.1065620302394237 28.7524718370672403
 24.8181150762648706 20.1065620302394237 11.4424978336205569
 24.8181150762648706 20.1065620302394237 14.3274935008616708
 24.8181150762648706 20.1065620302394237 17.2124891681027847
 24.8181150762648706 20.1065620302394237 20.0974848353438986
 24.8181150762648706 20.1065620302394237 22.9824805025850125
 24.8181150762648706 20.1065620302394237 25.8674761698261264
 24.8181150762648706 20.1065620302394237 28.7524718370672403
 28.1019361410892863 23.6720197107442303 12.8849956672411139
 28.1019361410892863 23.6720197107442303 15.7699913344822278
 28.1019361410892863 23.6720197107442303 18.6549870017233417
 28.1019361410892863 23.6720197107442303 21.5399826689644556
 28.1019361410892863 23.6720197107442303 24.4249783362055695
 28.1019361410892863 23.6720197107442303 27.3099740034466834
 25.7257408959877658 25.3984266111546120 12.8849956672411139
 25.7257408959877658 25.3984266111546120 15.7699913344822278
 25.7257408959877658 25.3984266111546120 18.6549870017233417
 25.7257408959877658 25.3984266111546120 21.5399826689644556
 25.7257408959877658 25.3984266111546120 24.4249783362055695
 25.7257408959877658 25.3984266111546120 27.3099740034466834
 23.3495456508862418 27.1248335115649901 12.8849956672411139
 23.3495456508862418 27.1248335115649901 15.7699913344822278
 23.3495456508862418 27.1248335115649901 18.6549870017233417
 23.3495456508862418 27.1248335115649901 21.5399826689644556
 23.3495456508862418 27.1248335115649901 24.4249783362055695
 23.3495456508862418 27.1248335115649901 27.3099740034466834
 20.9733504057847178 25.3984266111546120 12.8849956672411139
 20.9733504057847178 25.3984266111546120 15.7699913344822278
 20.9733504057847178 25.3984266111546120 18.6549870017233417
 20.9733504057847178 25.3984266111546120 21.5399826689644556
 20.9733504057847178 25.3984266111546120 24.4249783362055695
 20.9733504057847178 25.3984266111546120 27.3099740034466834
 18.5971551606831973 23.6720197107442338 12.8849956672411139
 18.5971551606831973 23.6720197107442338 15.7699913344822278
 18.5971551606831973 23.6720197107442338 18.6549870017233417
 18.5971551606831973 23.6720197107442338 21.5399826689644556
 18.5971551606831973 23.6720197107442338 24.4249783362055695
 18.5971551606831973 23.6720197107442338 27.3099740034466834
 19.5047809804060890 20.8786346674678853 12.8849956672411139
 19.5047809804060890 20.8786346674678853 15.7699913344822278
 19.5047809804060890 20.8786346674678853 18.6549870017233417
 19.5047809804060890 20.8786346674678853 21.5399826689644556
 19.5047809804060890 20.8786346674678853 24.4249783362055695
 19.5047809804060890 20.8786346674678853 27.3099740034466834
 20.4124068001289842 18.0852496241915404 12.8849956672411139
 20.4124068001289842 18.0852496241915404 15.7699913344822278
 20.4124068001289842 18.0852496241915404 18.6549870017233417
 20.4124068001289842 18.0852496241915404 21.5399826689644556
 20.4124068001289842 18.0852496241915404 24.4249783362055695
 20.4124068001289842 18.0852496241915404 27.3099740034466834
 23.3495456508862418 18.0852496241915404 12.8849956672411139
 23.3495456508862418 18.0852496241915404 15.7699913344822278
 23.3495456508862418 18.0852496241915404 18.6549870017233417
 23.3495456508862418 18.0852496241915404 21.5399826689644556
 23.3495456508862418 18.0852496241915404 24.4249783362055695
 23.3495456508862418 18.0852496241915404 27.3099740034466834
 26.2866845016434958 18.0852496241915404 12.8849956672411139
 26.2866845016434958 18.0852496241915404 15.7699913344822278
 26.2866845016434958 18.0852496241915404 18.6549870017233417
 26.2866845016434958 18.0852496241915404 21.5399826689644556
 26.2866845016434958 18.0852496241915404 24.4249783362055695
 26.2866845016434958 18.0852496241915404 27.3099740034466834
 27.1943103213663910 20.8786346674678853 12.8849956672411139
 27.1943103213663910 20.8786346674678853 15.7699913344822278
 27.1943103213663910 20.8786346674678853 18.6549870017233417
 27.1943103213663910 20.8786346674678853 21.5399826689644556
 27.1943103213663910 20.8786346674678853 24.4249783362055695
 27.1943103213663910 20.8786346674678853 27.3099740034466834
 30.4781313861908103 24.4440923479726955 14.3274935008616708
 30.4781313861908103 24.4440923479726955 17.2124891681027847
 30.4781313861908103 24.4440923479726955 20.0974848353438986
 30.4781313861908103 24.4440923479726955 22.9824805025850125
 30.4781313861908103 24.4440923479726955 25.8674761698261264
 28.1019361410892863 26.1704992483830736 14.3274935008616708
 28.1019361410892863 26.1704992483830736 17.2124891681027847
 28.1019361410892863 26.1704992483830736 20.0974848353438986
 28.1019361410892863 26.1704992483830736 22.9824805025850125
 28.1019361410892863 26.1704992483830736 25.8674761698261264
 25.7257408959877658 27.8969061487934518 14.3274935008616708
 25.7257408959877658 27.8969061487934518 17.2124891681027847
 25.7257408959877658 27.8969061487934518 20.0974848353438986
 25.7257408959877658 27.8969061487934518 22.9824805025850125
 25.7257408959877658 27.8969061487934518 25.8674761698261264
 23.3495456508862418 29.6233130492038299 14.3274935008616708
 23.3495456508862418 29.6233130492038299 17.2124891681027847
 23.3495456508862418 29.6233130492038299 20.0974848353438986
 23.3495456508862418 29.6233130492038299 22.9824805025850125
 23.3495456508862418 29.6233130492038299 25.8674761698261264
 20.9733504057847213 27.8969061487934553 14.3274935008616708
 20.9733504057847213 27.8969061487934553 17.2124891681027847
 20.9733504057847213 27.8969061487934553 20.0974848353438986
 20.9733504057847213 27.8969061487934553 22.9824805025850125
 20.9733504057847213 27.8969061487934553 25.8674761698261264
 18.5971551606831973 26.1704992483830736 14.3274935008616708
 18.5971551606831973 26.1704992483830736 17.2124891681027847
 18.5971551606831973 26.1704992483830736 20.0974848353438986
 18.5971551606831973 26.1704992483830736 22.9824805025850125
 18.5971551606831973 26.1704992483830736 25.8674761698261264
 16.2209599155816733 24.4440923479726955 14.3274935008616708
 16.2209599155816733 24.4440923479726955 17.2124891681027847
 16.2209599155816733 24.4440923479726955 20.0974848353438986
 16.2209599155816733 24.4440923479726955 22.9824805025850125
 16.2209599155816733 24.4440923479726955 25.8674761698261264
 17.1285857353045685 21.6507073046963505 14.3274935008616708
 17.1285857353045685 21.6507073046963505 17.2124891681027847
 17.1285857353045685 21.6507073046963505 20.0974848353438986
 17.1285857353045685 21.6507073046963505 22.9824805025850125
 17.1285857353045685 21.6507073046963505 25.8674761698261264
 18.0362115550274638 18.8573222614200020 14.3274935008616708
 18.0362115550274638 18.8573222614200020 17.2124891681027847
 18.0362115550274638 18.8573222614200020 20.0974848353438986
 18.0362115550274638 18.8573222614200020 22.9824805025850125
 18.0362115550274638 18.8573222614200020 25.8674761698261264
 18.9438373747503590 16.0639372181436570 14.3274935008616708
 18.9438373747503590 16.0639372181436570 17.2124891681027847
 18.9438373747503590 16.0639372181436570 20.0974848353438986
 18.9438373747503590 16.0639372181436570 22.9824805025850125
 18.9438373747503590 16.0639372181436570 25.8674761698261264
 21.8809762255076130 16.0639372181436570 14.3274935008616708
 21.8809762255076130 16.0639372181436570 17.2124891681027847
 21.8809762255076130 16.0639372181436570 20.0974848353438986
 21.8809762255076130 16.0639372181436570 22.9824805025850125
 21.8809762255076130 16.0639372181436570 25.8674761698261264
 24.8181150762648670 16.0639372181436570 14.3274935008616708
 24.8181150762648670 16.0639372181436570 17.2124891681027847
 24.8181150762648670 16.0639372181436570 20.0974848353438986
 24.8181150762648670 16.0639372181436570 22.9824805025850125
 24.8181150762648670 16.0639372181436570 25.8674761698261264
 27.7552539270221246 16.0639372181436535 14.3274935008616708
 27.7552539270221246 16.0639372181436535 17.2124891681027847
 27.7552539270221246 16.0639372181436535 20.0974848353438986
 27.7552539270221246 16.0639372181436535 22.9824805025850125
 27.7552539270221246 16.0639372181436535 25.8674761698261264
 28.6628797467450198 18.8573222614200020 14.3274935008616708
 28.6628797467450198 18.8573222614200020 17.2124891681027847
 28.6628797467450198 18.8573222614200020 20.0974848353438986
 28.6628797467450198 18.8573222614200020 22.9824805025850125
 28.6628797467450198 18.8573222614200020 25.8674761698261264
 29.5705055664679151 21.6507073046963470 14.3274935008616708
 29.5705055664679151 21.6507073046963470 17.2124891681027847
 29.5705055664679151 21.6507073046963470 20.0974848353438986
 29.5705055664679151 21.6507073046963470 22.9824805025850125
 29.5705055664679151 21.6507073046963470 25.8674761698261264
 32.8543266312923308 25.2161649852011571 15.7699913344822278
 32.8543266312923308 25.2161649852011571 18.6549870017233417
 32.8543266312923308 25.2161649852011571 21.5399826689644556
 32.8543266312923308 25.2161649852011571 24.4249783362055695
 30.4781313861908103 26.9425718856115353 15.7699913344822278
 30.4781313861908103 26.9425718856115353 18.6549870017233417
 30.4781313861908103 26.9425718856115353 21.5399826689644556
 30.4781313861908103 26.9425718856115353 24.4249783362055695
 28.1019361410892863 28.6689787860219170 15.7699913344822278
 28.1019361410892863 28.6689787860219170 18.6549870017233417
 28.1019361410892863 28.6689787860219170 21.5399826689644556
 28.1019361410892863 28.6689787860219170 24.4249783362055695
 25.7257408959877658 30.3953856864322951 15.7699913344822278
 25.7257408959877658 30.3953856864322951 18.6549870017233417
 25.7257408959877658 30.3953856864322951 21.5399826689644556
 25.7257408959877658 30.3953856864322951 24.4249783362055695
 23.3495456508862418 32.1217925868426732 15.7699913344822278
 23.3495456508862418 32.1217925868426732 18.6549870017233417
 23.3495456508862418 32.1217925868426732 21.5399826689644556
 23.3495456508862418 32.1217925868426732 24.4249783362055695
 20.9733504057847213 30.3953856864322951 15.7699913344822278
 20.9733504057847213 30.3953856864322951 18.6549870017233417
 20.9733504057847213 30.3953856864322951 21.5399826689644556
 20.9733504057847213 30.3953856864322951 24.4249783362055695
 18.5971551606831973 28.6689787860219170 15.7699913344822278
 18.5971551606831973 28.6689787860219170 18.6549870017233417
 18.5971551606831973 28.6689787860219170 21.5399826689644556
 18.5971551606831973 28.6689787860219170 24.4249783362055695
 16.2209599155816733 26.9425718856115388 15.7699913344822278
 16.2209599155816733 26.9425718856115388 18.6549870017233417
 16.2209599155816733 26.9425718856115388 21.5399826689644556
 16.2209599155816733 26.9425718856115388 24.4249783362055695
 13.8447646704801510 25.2161649852011607 15.7699913344822278
 13.8447646704801510 25.2161649852011607 18.6549870017233417
 13.8447646704801510 25.2161649852011607 21.5399826689644556
 13.8447646704801510 25.2161649852011607 24.4249783362055695
 14.7523904902030445 22.4227799419248122 15.7699913344822278
 14.7523904902030445 22.4227799419248122 18.6549870017233417
 14.7523904902030445 22.4227799419248122 21.5399826689644556
 14.7523904902030445 22.4227799419248122 24.4249783362055695
 15.6600163099259397 19.6293948986484672 15.7699913344822278
 15.6600163099259397 19.6293948986484672 18.6549870017233417
 15.6600163099259397 19.6293948986484672 21.5399826689644556
 15.6600163099259397 19.6293948986484672 24.4249783362055695
 16.5676421296488350 16.8360098553721187 15.7699913344822278
 16.5676421296488350 16.8360098553721187 18.6549870017233417
 16.5676421296488350 16.8360098553721187 21.5399826689644556
 16.5676421296488350 16.8360098553721187 24.4249783362055695
 17.4752679493717267 14.0426248120957720 15.7699913344822278
 17.4752679493717267 14.0426248120957720 18.6549870017233417
 17.4752679493717267 14.0426248120957720 21.5399826689644556
 17.4752679493717267 14.0426248120957720 24.4249783362055695
 20.4124068001289842 14.0426248120957702 15.7699913344822278
 20.4124068001289842 14.0426248120957702 18.6549870017233417
 20.4124068001289842 14.0426248120957702 21.5399826689644556
 20.4124068001289842 14.0426248120957702 24.4249783362055695
 23.3495456508862418 14.0426248120957702 15.7699913344822278
 23.3495456508862418 14.0426248120957702 18.6549870017233417
 23.3495456508862418 14.0426248120957702 21.5399826689644556
 23.3495456508862418 14.0426248120957702 24.4249783362055695
 26.2866845016434958 14.0426248120957702 15.7699913344822278
 26.2866845016434958 14.0426248120957702 18.6549870017233417
 26.2866845016434958 14.0426248120957702 21.5399826689644556
 26.2866845016434958 14.0426248120957702 24.4249783362055695
 29.2238233524007534 14.0426248120957702 15.7699913344822278
 29.2238233524007534 14.0426248120957702 18.6549870017233417
 29.2238233524007534 14.0426248120957702 21.5399826689644556
 29.2238233524007534 14.0426248120957702 24.4249783362055695
 30.1314491721236450 16.8360098553721187 15.7699913344822278
 30.1314491721236450 16.8360098553721187 18.6549870017233417
 30.1314491721236450 16.8360098553721187 21.5399826689644556
 30.1314491721236450 16.8360098553721187 24.4249783362055695
 31.0390749918465403 19.6293948986484637 15.7699913344822278
 31.0390749918465403 19.6293948986484637 18.6549870017233417
 31.0390749918465403 19.6293948986484637 21.5399826689644556
 31.0390749918465403 19.6293948986484637 24.4249783362055695
 31.9467008115694355 22.4227799419248086 15.7699913344822278
 31.9467008115694355 22.4227799419248086 18.6549870017233417
 31.9467008115694355 22.4227799419248086 21.5399826689644556
 31.9467008115694355 22.4227799419248086 24.4249783362055695
 35.2305218763938512 25.9882376224296188 17.2124891681027847
 35.2305218763938512 25.9882376224296188 20.0974848353438986
 35.2305218763938512 25.9882376224296188 22.9824805025850125
 32.8543266312923308 27.7146445228399969 17.2124891681027847
 32.8543266312923308 27.7146445228399969 20.0974848353438986
 32.8543266312923308 27.7146445228399969 22.9824805025850125
 30.4781313861908103 29.4410514232503786 17.2124891681027847
 30.4781313861908103 29.4410514232503786 20.0974848353438986
 30.4781313861908103 29.4410514232503786 22.9824805025850125
 28.1019361410892898 31.1674583236607567 17.2124891681027847
 28.1019361410892898 31.1674583236607567 20.0974848353438986
 28.1019361410892898 31.1674583236607567 22.9824805025850125
 25.7257408959877658 32.8938652240711349 17.2124891681027847
 25.7257408959877658 32.8938652240711349 20.0974848353438986
 25.7257408959877658 32.8938652240711349 22.9824805025850125
 23.3495456508862418 34.6202721244815166 17.2124891681027847
 23.3495456508862418 34.6202721244815166 20.0974848353438986
 23.3495456508862418 34.6202721244815166 22.9824805025850125
 20.9733504057847213 32.8938652240711349 17.2124891681027847
 20.9733504057847213 32.8938652240711349 20.0974848353438986
 20.9733504057847213 32.8938652240711349 22.9824805025850125
 18.5971551606831973 31.1674583236607603 17.2124891681027847
 18.5971551606831973 31.1674583236607603 20.0974848353438986
 18.5971551606831973 31.1674583236607603 22.9824805025850125
 16.2209599155816733 29.4410514232503786 17.2124891681027847
 16.2209599155816733 29.4410514232503786 20.0974848353438986
 16.2209599155816733 29.4410514232503786 22.9824805025850125
 13.8447646704801510 27.7146445228400040 17.2124891681027847
 13.8447646704801510 27.7146445228400040 20.0974848353438986
 13.8447646704801510 27.7146445228400040 22.9824805025850125
 11.4685694253786288 25.9882376224296223 17.2124891681027847
 11.4685694253786288 25.9882376224296223 20.0974848353438986
 11.4685694253786288 25.9882376224296223 22.9824805025850125
 12.3761952451015222 23.1948525791532774 17.2124891681027847
 12.3761952451015222 23.1948525791532774 20.0974848353438986
 12.3761952451015222 23.1948525791532774 22.9824805025850125
 13.2838210648244157 20.4014675358769288 17.2124891681027847
 13.2838210648244157 20.4014675358769288 20.0974848353438986
 13.2838210648244157 20.4014675358769288 22.9824805025850125
 14.1914468845473110 17.6080824926005803 17.2124891681027847
 14.1914468845473110 17.6080824926005803 20.0974848353438986
 14.1914468845473110 17.6080824926005803 22.9824805025850125
 15.0990727042702062 14.8146974493242354 17.2124891681027847
 15.0990727042702062 14.8146974493242354 20.0974848353438986
 15.0990727042702062 14.8146974493242354 22.9824805025850125
 16.0066985239931014 12.0213124060478886 17.2124891681027847
 16.0066985239931014 12.0213124060478886 20.0974848353438986
 16.0066985239931014 12.0213124060478886 22.9824805025850125
 18.9438373747503555 12.0213124060478869 17.2124891681027847
 18.9438373747503555 12.0213124060478869 20.0974848353438986
 18.9438373747503555 12.0213124060478869 22.9824805025850125
 21.8809762255076130 12.0213124060478869 17.2124891681027847
 21.8809762255076130 12.0213124060478869 20.0974848353438986
 21.8809762255076130 12.0213124060478869 22.9824805025850125
 24.8181150762648670 12.0213124060478869 17.2124891681027847
 24.8181150762648670 12.0213124060478869 20.0974848353438986
 24.8181150762648670 12.0213124060478869 22.9824805025850125
 27.7552539270221246 12.0213124060478869 17.2124891681027847
 27.7552539270221246 12.0213124060478869 20.0974848353438986
 27.7552539270221246 12.0213124060478869 22.9824805025850125
 30.6923927777793821 12.0213124060478869 17.2124891681027847
 30.6923927777793821 12.0213124060478869 20.0974848353438986
 30.6923927777793821 12.0213124060478869 22.9824805025850125
 31.6000185975022774 14.8146974493242318 17.2124891681027847
 31.6000185975022774 14.8146974493242318 20.0974848353438986
 31.6000185975022774 14.8146974493242318 22.9824805025850125
 32.5076444172251655 17.6080824926005803 17.2124891681027847
 32.5076444172251655 17.6080824926005803 20.0974848353438986
 32.5076444172251655 17.6080824926005803 22.9824805025850125
 33.4152702369480679 20.4014675358769253 17.2124891681027847
 33.4152702369480679 20.4014675358769253 20.0974848353438986
 33.4152702369480679 20.4014675358769253 22.9824805025850125
 34.3228960566709560 23.1948525791532738 17.2124891681027847
 34.3228960566709560 23.1948525791532738 20.0974848353438986
 34.3228960566709560 23.1948525791532738 22.9824805025850125
 35.2305218763938512 28.4867171600684621 18.6549870017233417
 35.2305218763938512 28.4867171600684621 21.5399826689644556
 32.8543266312923308 30.2131240604788402 18.6549870017233417
 32.8543266312923308 30.2131240604788402 21.5399826689644556
 30.4781313861908103 31.9395309608892184 18.6549870017233417
 30.4781313861908103 31.9395309608892184 21.5399826689644556
 28.1019361410892898 33.6659378612995965 18.6549870017233417
 28.1019361410892898 33.6659378612995965 21.5399826689644556
 25.7257408959877658 35.3923447617099782 18.6549870017233417
 25.7257408959877658 35.3923447617099782 21.5399826689644556
 20.9733504057847213 35.3923447617099782 18.6549870017233417
 20.9733504057847213 35.3923447617099782 21.5399826689644556
 18.5971551606831973 33.6659378612995965 18.6549870017233417
 18.5971551606831973 33.6659378612995965 21.5399826689644556
 16.2209599155816733 31.9395309608892219 18.6549870017233417
 16.2209599155816733 31.9395309608892219 21.5399826689644556
 13.8447646704801510 30.2131240604788438 18.6549870017233417
 13.8447646704801510 30.2131240604788438 21.5399826689644556
 11.4685694253786288 28.4867171600684657 18.6549870017233417
 11.4685694253786288 28.4867171600684657 21.5399826689644556
 10.0000000000000000 23.9669252163817390 18.6549870017233417
 10.0000000000000000 23.9669252163817390 21.5399826689644556
 10.9076258197228952 21.1735401731053940 18.6549870017233417
 10.9076258197228952 21.1735401731053940 21.5399826689644556
 11.8152516394457887 18.3801551298290455 18.6549870017233417
 11.8152516394457887 18.3801551298290455 21.5399826689644556
 12.7228774591686822 15.5867700865526988 18.6549870017233417
 12.7228774591686822 15.5867700865526988 21.5399826689644556
 13.6305032788915774 12.7933850432763521 18.6549870017233417
 13.6305032788915774 12.7933850432763521 21.5399826689644556
 17.4752679493717267 10.0000000000000036 18.6549870017233417
 17.4752679493717267 10.0000000000000036 21.5399826689644556
 20.4124068001289842 10.0000000000000036 18.6549870017233417
 20.4124068001289842 10.0000000000000036 21.5399826689644556
 23.3495456508862418 10.0000000000000036 18.6549870017233417
 23.3495456508862418 10.0000000000000036 21.5399826689644556
 26.2866845016434958 10.0000000000000036 18.6549870017233417
 26.2866845016434958 10.0000000000000036 21.5399826689644556
 29.2238233524007498 10.0000000000000036 18.6549870017233417
 29.2238233524007498 10.0000000000000036 21.5399826689644556
 33.0685880228809026 12.7933850432763485 18.6549870017233417
 33.0685880228809026 12.7933850432763485 21.5399826689644556
 33.9762138426037978 15.5867700865526952 18.6549870017233417
 33.9762138426037978 15.5867700865526952 21.5399826689644556
 34.8838396623266931 18.3801551298290420 18.6549870017233417
 34.8838396623266931 18.3801551298290420 21.5399826689644556
 35.7914654820495883 21.1735401731053869 18.6549870017233417
 35.7914654820495883 21.1735401731053869 21.5399826689644556
 36.6990913017724836 23.9669252163817355 18.6549870017233417
 36.6990913017724836 23.9669252163817355 21.5399826689644556
