Pt 
 1.0000000000000000
    59.2000000000000028    0.0000000000000000    0.0000000000000000
     0.0000000000000000   59.2000000000000028    0.0000000000000000
     0.0000000000000000    0.0000000000000000   59.2000000000000028
 Pt 
 891
Cartesian
 11.9600000000000009 27.6400000000000006 29.6000000000000014
 11.9600000000000009 29.6000000000000014 27.6400000000000006
 10.0000000000000000 29.6000000000000014 29.6000000000000014
 11.9600000000000009 29.6000000000000014 31.5600000000000023
 11.9600000000000009 31.5600000000000023 29.6000000000000014
 15.8799999999999990 23.7199999999999989 29.6000000000000014
 13.9199999999999999 27.6400000000000006 27.6400000000000006
 15.8799999999999990 25.6799999999999997 27.6400000000000006
 15.8799999999999990 27.6400000000000006 25.6799999999999997
 13.9199999999999999 25.6799999999999997 29.6000000000000014
 13.9199999999999999 27.6400000000000006 31.5600000000000023
 15.8799999999999990 25.6799999999999997 31.5600000000000023
 15.8799999999999990 27.6400000000000006 29.6000000000000014
 15.8799999999999990 27.6400000000000006 33.5199999999999960
 15.8799999999999990 29.6000000000000014 23.7199999999999989
 13.9199999999999999 29.6000000000000014 25.6799999999999997
 13.9199999999999999 31.5600000000000023 27.6400000000000006
 15.8799999999999990 29.6000000000000014 27.6400000000000006
 15.8799999999999990 31.5600000000000023 25.6799999999999997
 13.9199999999999999 29.6000000000000014 29.6000000000000014
 13.9199999999999999 31.5600000000000023 31.5600000000000023
 15.8799999999999990 29.6000000000000014 31.5600000000000023
 15.8799999999999990 31.5600000000000023 29.6000000000000014
 13.9199999999999999 29.6000000000000014 33.5199999999999960
 15.8799999999999990 29.6000000000000014 35.4800000000000040
 15.8799999999999990 31.5600000000000023 33.5199999999999960
 15.8799999999999990 33.5199999999999960 27.6400000000000006
 13.9199999999999999 33.5199999999999960 29.6000000000000014
 15.8799999999999990 33.5199999999999960 31.5600000000000023
 15.8799999999999990 35.4800000000000040 29.6000000000000014
 19.8000000000000007 19.8000000000000007 29.6000000000000014
 17.8399999999999999 23.7199999999999989 27.6400000000000006
 19.8000000000000007 21.7599999999999980 27.6400000000000006
 19.8000000000000007 23.7199999999999989 25.6799999999999997
 17.8399999999999999 21.7599999999999980 29.6000000000000014
 17.8399999999999999 23.7199999999999989 31.5600000000000023
 19.8000000000000007 21.7599999999999980 31.5600000000000023
 19.8000000000000007 23.7199999999999989 29.6000000000000014
 19.8000000000000007 23.7199999999999989 33.5199999999999960
 17.8399999999999999 27.6400000000000006 23.7199999999999989
 19.8000000000000007 25.6799999999999997 23.7199999999999989
 19.8000000000000007 27.6400000000000006 21.7599999999999980
 17.8399999999999999 25.6799999999999997 25.6799999999999997
 17.8399999999999999 27.6400000000000006 27.6400000000000006
 19.8000000000000007 25.6799999999999997 27.6400000000000006
 19.8000000000000007 27.6400000000000006 25.6799999999999997
 17.8399999999999999 25.6799999999999997 29.6000000000000014
 17.8399999999999999 27.6400000000000006 31.5600000000000023
 19.8000000000000007 25.6799999999999997 31.5600000000000023
 19.8000000000000007 27.6400000000000006 29.6000000000000014
 17.8399999999999999 25.6799999999999997 33.5199999999999960
 17.8399999999999999 27.6400000000000006 35.4800000000000040
 19.8000000000000007 25.6799999999999997 35.4800000000000040
 19.8000000000000007 27.6400000000000006 33.5199999999999960
 19.8000000000000007 27.6400000000000006 37.4399999999999977
 19.8000000000000007 29.6000000000000014 19.8000000000000007
 17.8399999999999999 29.6000000000000014 21.7599999999999980
 17.8399999999999999 31.5600000000000023 23.7199999999999989
 19.8000000000000007 29.6000000000000014 23.7199999999999989
 19.8000000000000007 31.5600000000000023 21.7599999999999980
 17.8399999999999999 29.6000000000000014 25.6799999999999997
 17.8399999999999999 31.5600000000000023 27.6400000000000006
 19.8000000000000007 29.6000000000000014 27.6400000000000006
 19.8000000000000007 31.5600000000000023 25.6799999999999997
 17.8399999999999999 29.6000000000000014 29.6000000000000014
 17.8399999999999999 31.5600000000000023 31.5600000000000023
 19.8000000000000007 29.6000000000000014 31.5600000000000023
 19.8000000000000007 31.5600000000000023 29.6000000000000014
 17.8399999999999999 29.6000000000000014 33.5199999999999960
 17.8399999999999999 31.5600000000000023 35.4800000000000040
 19.8000000000000007 29.6000000000000014 35.4800000000000040
 19.8000000000000007 31.5600000000000023 33.5199999999999960
 17.8399999999999999 29.6000000000000014 37.4399999999999977
 19.8000000000000007 29.6000000000000014 39.3999999999999986
 19.8000000000000007 31.5600000000000023 37.4399999999999977
 19.8000000000000007 33.5199999999999960 23.7199999999999989
 17.8399999999999999 33.5199999999999960 25.6799999999999997
 17.8399999999999999 35.4800000000000040 27.6400000000000006
 19.8000000000000007 33.5199999999999960 27.6400000000000006
 19.8000000000000007 35.4800000000000040 25.6799999999999997
 17.8399999999999999 33.5199999999999960 29.6000000000000014
 17.8399999999999999 35.4800000000000040 31.5600000000000023
 19.8000000000000007 33.5199999999999960 31.5600000000000023
 19.8000000000000007 35.4800000000000040 29.6000000000000014
 17.8399999999999999 33.5199999999999960 33.5199999999999960
 19.8000000000000007 33.5199999999999960 35.4800000000000040
 19.8000000000000007 35.4800000000000040 33.5199999999999960
 19.8000000000000007 37.4399999999999977 27.6400000000000006
 17.8399999999999999 37.4399999999999977 29.6000000000000014
 19.8000000000000007 37.4399999999999977 31.5600000000000023
 19.8000000000000007 39.3999999999999986 29.6000000000000014
 23.7199999999999989 15.8799999999999990 29.6000000000000014
 21.7599999999999980 19.8000000000000007 27.6400000000000006
 23.7199999999999989 17.8399999999999999 27.6400000000000006
 23.7199999999999989 19.8000000000000007 25.6799999999999997
 21.7599999999999980 17.8399999999999999 29.6000000000000014
 21.7599999999999980 19.8000000000000007 31.5600000000000023
 23.7199999999999989 17.8399999999999999 31.5600000000000023
 23.7199999999999989 19.8000000000000007 29.6000000000000014
 23.7199999999999989 19.8000000000000007 33.5199999999999960
 21.7599999999999980 23.7199999999999989 23.7199999999999989
 23.7199999999999989 21.7599999999999980 23.7199999999999989
 23.7199999999999989 23.7199999999999989 21.7599999999999980
 21.7599999999999980 21.7599999999999980 25.6799999999999997
 21.7599999999999980 23.7199999999999989 27.6400000000000006
 23.7199999999999989 21.7599999999999980 27.6400000000000006
 23.7199999999999989 23.7199999999999989 25.6799999999999997
 21.7599999999999980 21.7599999999999980 29.6000000000000014
 21.7599999999999980 23.7199999999999989 31.5600000000000023
 23.7199999999999989 21.7599999999999980 31.5600000000000023
 23.7199999999999989 23.7199999999999989 29.6000000000000014
 21.7599999999999980 21.7599999999999980 33.5199999999999960
 21.7599999999999980 23.7199999999999989 35.4800000000000040
 23.7199999999999989 21.7599999999999980 35.4800000000000040
 23.7199999999999989 23.7199999999999989 33.5199999999999960
 23.7199999999999989 23.7199999999999989 37.4399999999999977
 21.7599999999999980 27.6400000000000006 19.8000000000000007
 23.7199999999999989 25.6799999999999997 19.8000000000000007
 23.7199999999999989 27.6400000000000006 17.8399999999999999
 21.7599999999999980 25.6799999999999997 21.7599999999999980
 21.7599999999999980 27.6400000000000006 23.7199999999999989
 23.7199999999999989 25.6799999999999997 23.7199999999999989
 23.7199999999999989 27.6400000000000006 21.7599999999999980
 21.7599999999999980 25.6799999999999997 25.6799999999999997
 21.7599999999999980 27.6400000000000006 27.6400000000000006
 23.7199999999999989 25.6799999999999997 27.6400000000000006
 23.7199999999999989 27.6400000000000006 25.6799999999999997
 21.7599999999999980 25.6799999999999997 29.6000000000000014
 21.7599999999999980 27.6400000000000006 31.5600000000000023
 23.7199999999999989 25.6799999999999997 31.5600000000000023
 23.7199999999999989 27.6400000000000006 29.6000000000000014
 21.7599999999999980 25.6799999999999997 33.5199999999999960
 21.7599999999999980 27.6400000000000006 35.4800000000000040
 23.7199999999999989 25.6799999999999997 35.4800000000000040
 23.7199999999999989 27.6400000000000006 33.5199999999999960
 21.7599999999999980 25.6799999999999997 37.4399999999999977
 21.7599999999999980 27.6400000000000006 39.3999999999999986
 23.7199999999999989 25.6799999999999997 39.3999999999999986
 23.7199999999999989 27.6400000000000006 37.4399999999999977
 23.7199999999999989 27.6400000000000006 41.3599999999999994
 23.7199999999999989 29.6000000000000014 15.8799999999999990
 21.7599999999999980 29.6000000000000014 17.8399999999999999
 21.7599999999999980 31.5600000000000023 19.8000000000000007
 23.7199999999999989 29.6000000000000014 19.8000000000000007
 23.7199999999999989 31.5600000000000023 17.8399999999999999
 21.7599999999999980 29.6000000000000014 21.7599999999999980
 21.7599999999999980 31.5600000000000023 23.7199999999999989
 23.7199999999999989 29.6000000000000014 23.7199999999999989
 23.7199999999999989 31.5600000000000023 21.7599999999999980
 21.7599999999999980 29.6000000000000014 25.6799999999999997
 21.7599999999999980 31.5600000000000023 27.6400000000000006
 23.7199999999999989 29.6000000000000014 27.6400000000000006
 23.7199999999999989 31.5600000000000023 25.6799999999999997
 21.7599999999999980 29.6000000000000014 29.6000000000000014
 21.7599999999999980 31.5600000000000023 31.5600000000000023
 23.7199999999999989 29.6000000000000014 31.5600000000000023
 23.7199999999999989 31.5600000000000023 29.6000000000000014
 21.7599999999999980 29.6000000000000014 33.5199999999999960
 21.7599999999999980 31.5600000000000023 35.4800000000000040
 23.7199999999999989 29.6000000000000014 35.4800000000000040
 23.7199999999999989 31.5600000000000023 33.5199999999999960
 21.7599999999999980 29.6000000000000014 37.4399999999999977
 21.7599999999999980 31.5600000000000023 39.3999999999999986
 23.7199999999999989 29.6000000000000014 39.3999999999999986
 23.7199999999999989 31.5600000000000023 37.4399999999999977
 21.7599999999999980 29.6000000000000014 41.3599999999999994
 23.7199999999999989 29.6000000000000014 43.3200000000000003
 23.7199999999999989 31.5600000000000023 41.3599999999999994
 23.7199999999999989 33.5199999999999960 19.8000000000000007
 21.7599999999999980 33.5199999999999960 21.7599999999999980
 21.7599999999999980 35.4800000000000040 23.7199999999999989
 23.7199999999999989 33.5199999999999960 23.7199999999999989
 23.7199999999999989 35.4800000000000040 21.7599999999999980
 21.7599999999999980 33.5199999999999960 25.6799999999999997
 21.7599999999999980 35.4800000000000040 27.6400000000000006
 23.7199999999999989 33.5199999999999960 27.6400000000000006
 23.7199999999999989 35.4800000000000040 25.6799999999999997
 21.7599999999999980 33.5199999999999960 29.6000000000000014
 21.7599999999999980 35.4800000000000040 31.5600000000000023
 23.7199999999999989 33.5199999999999960 31.5600000000000023
 23.7199999999999989 35.4800000000000040 29.6000000000000014
 21.7599999999999980 33.5199999999999960 33.5199999999999960
 21.7599999999999980 35.4800000000000040 35.4800000000000040
 23.7199999999999989 33.5199999999999960 35.4800000000000040
 23.7199999999999989 35.4800000000000040 33.5199999999999960
 21.7599999999999980 33.5199999999999960 37.4399999999999977
 23.7199999999999989 33.5199999999999960 39.3999999999999986
 23.7199999999999989 35.4800000000000040 37.4399999999999977
 23.7199999999999989 37.4399999999999977 23.7199999999999989
 21.7599999999999980 37.4399999999999977 25.6799999999999997
 21.7599999999999980 39.3999999999999986 27.6400000000000006
 23.7199999999999989 37.4399999999999977 27.6400000000000006
 23.7199999999999989 39.3999999999999986 25.6799999999999997
 21.7599999999999980 37.4399999999999977 29.6000000000000014
 21.7599999999999980 39.3999999999999986 31.5600000000000023
 23.7199999999999989 37.4399999999999977 31.5600000000000023
 23.7199999999999989 39.3999999999999986 29.6000000000000014
 21.7599999999999980 37.4399999999999977 33.5199999999999960
 23.7199999999999989 37.4399999999999977 35.4800000000000040
 23.7199999999999989 39.3999999999999986 33.5199999999999960
 23.7199999999999989 41.3599999999999994 27.6400000000000006
 21.7599999999999980 41.3599999999999994 29.6000000000000014
 23.7199999999999989 41.3599999999999994 31.5600000000000023
 23.7199999999999989 43.3200000000000003 29.6000000000000014
 27.6400000000000006 11.9600000000000009 29.6000000000000014
 25.6799999999999997 15.8799999999999990 27.6400000000000006
 27.6400000000000006 13.9199999999999999 27.6400000000000006
 27.6400000000000006 15.8799999999999990 25.6799999999999997
 25.6799999999999997 13.9199999999999999 29.6000000000000014
 25.6799999999999997 15.8799999999999990 31.5600000000000023
 27.6400000000000006 13.9199999999999999 31.5600000000000023
 27.6400000000000006 15.8799999999999990 29.6000000000000014
 27.6400000000000006 15.8799999999999990 33.5199999999999960
 25.6799999999999997 19.8000000000000007 23.7199999999999989
 27.6400000000000006 17.8399999999999999 23.7199999999999989
 27.6400000000000006 19.8000000000000007 21.7599999999999980
 25.6799999999999997 17.8399999999999999 25.6799999999999997
 25.6799999999999997 19.8000000000000007 27.6400000000000006
 27.6400000000000006 17.8399999999999999 27.6400000000000006
 27.6400000000000006 19.8000000000000007 25.6799999999999997
 25.6799999999999997 17.8399999999999999 29.6000000000000014
 25.6799999999999997 19.8000000000000007 31.5600000000000023
 27.6400000000000006 17.8399999999999999 31.5600000000000023
 27.6400000000000006 19.8000000000000007 29.6000000000000014
 25.6799999999999997 17.8399999999999999 33.5199999999999960
 25.6799999999999997 19.8000000000000007 35.4800000000000040
 27.6400000000000006 17.8399999999999999 35.4800000000000040
 27.6400000000000006 19.8000000000000007 33.5199999999999960
 27.6400000000000006 19.8000000000000007 37.4399999999999977
 25.6799999999999997 23.7199999999999989 19.8000000000000007
 27.6400000000000006 21.7599999999999980 19.8000000000000007
 27.6400000000000006 23.7199999999999989 17.8399999999999999
 25.6799999999999997 21.7599999999999980 21.7599999999999980
 25.6799999999999997 23.7199999999999989 23.7199999999999989
 27.6400000000000006 21.7599999999999980 23.7199999999999989
 27.6400000000000006 23.7199999999999989 21.7599999999999980
 25.6799999999999997 21.7599999999999980 25.6799999999999997
 25.6799999999999997 23.7199999999999989 27.6400000000000006
 27.6400000000000006 21.7599999999999980 27.6400000000000006
 27.6400000000000006 23.7199999999999989 25.6799999999999997
 25.6799999999999997 21.7599999999999980 29.6000000000000014
 25.6799999999999997 23.7199999999999989 31.5600000000000023
 27.6400000000000006 21.7599999999999980 31.5600000000000023
 27.6400000000000006 23.7199999999999989 29.6000000000000014
 25.6799999999999997 21.7599999999999980 33.5199999999999960
 25.6799999999999997 23.7199999999999989 35.4800000000000040
 27.6400000000000006 21.7599999999999980 35.4800000000000040
 27.6400000000000006 23.7199999999999989 33.5199999999999960
 25.6799999999999997 21.7599999999999980 37.4399999999999977
 25.6799999999999997 23.7199999999999989 39.3999999999999986
 27.6400000000000006 21.7599999999999980 39.3999999999999986
 27.6400000000000006 23.7199999999999989 37.4399999999999977
 27.6400000000000006 23.7199999999999989 41.3599999999999994
 25.6799999999999997 27.6400000000000006 15.8799999999999990
 27.6400000000000006 25.6799999999999997 15.8799999999999990
 27.6400000000000006 27.6400000000000006 13.9199999999999999
 25.6799999999999997 25.6799999999999997 17.8399999999999999
 25.6799999999999997 27.6400000000000006 19.8000000000000007
 27.6400000000000006 25.6799999999999997 19.8000000000000007
 27.6400000000000006 27.6400000000000006 17.8399999999999999
 25.6799999999999997 25.6799999999999997 21.7599999999999980
 25.6799999999999997 27.6400000000000006 23.7199999999999989
 27.6400000000000006 25.6799999999999997 23.7199999999999989
 27.6400000000000006 27.6400000000000006 21.7599999999999980
 25.6799999999999997 25.6799999999999997 25.6799999999999997
 25.6799999999999997 27.6400000000000006 27.6400000000000006
 27.6400000000000006 25.6799999999999997 27.6400000000000006
 27.6400000000000006 27.6400000000000006 25.6799999999999997
 25.6799999999999997 25.6799999999999997 29.6000000000000014
 25.6799999999999997 27.6400000000000006 31.5600000000000023
 27.6400000000000006 25.6799999999999997 31.5600000000000023
 27.6400000000000006 27.6400000000000006 29.6000000000000014
 25.6799999999999997 25.6799999999999997 33.5199999999999960
 25.6799999999999997 27.6400000000000006 35.4800000000000040
 27.6400000000000006 25.6799999999999997 35.4800000000000040
 27.6400000000000006 27.6400000000000006 33.5199999999999960
 25.6799999999999997 25.6799999999999997 37.4399999999999977
 25.6799999999999997 27.6400000000000006 39.3999999999999986
 27.6400000000000006 25.6799999999999997 39.3999999999999986
 27.6400000000000006 27.6400000000000006 37.4399999999999977
 25.6799999999999997 25.6799999999999997 41.3599999999999994
 25.6799999999999997 27.6400000000000006 43.3200000000000003
 27.6400000000000006 25.6799999999999997 43.3200000000000003
 27.6400000000000006 27.6400000000000006 41.3599999999999994
 27.6400000000000006 27.6400000000000006 45.2800000000000011
 27.6400000000000006 29.6000000000000014 11.9600000000000009
 25.6799999999999997 29.6000000000000014 13.9199999999999999
 25.6799999999999997 31.5600000000000023 15.8799999999999990
 27.6400000000000006 29.6000000000000014 15.8799999999999990
 27.6400000000000006 31.5600000000000023 13.9199999999999999
 25.6799999999999997 29.6000000000000014 17.8399999999999999
 25.6799999999999997 31.5600000000000023 19.8000000000000007
 27.6400000000000006 29.6000000000000014 19.8000000000000007
 27.6400000000000006 31.5600000000000023 17.8399999999999999
 25.6799999999999997 29.6000000000000014 21.7599999999999980
 25.6799999999999997 31.5600000000000023 23.7199999999999989
 27.6400000000000006 29.6000000000000014 23.7199999999999989
 27.6400000000000006 31.5600000000000023 21.7599999999999980
 25.6799999999999997 29.6000000000000014 25.6799999999999997
 25.6799999999999997 31.5600000000000023 27.6400000000000006
 27.6400000000000006 29.6000000000000014 27.6400000000000006
 27.6400000000000006 31.5600000000000023 25.6799999999999997
 25.6799999999999997 29.6000000000000014 29.6000000000000014
 25.6799999999999997 31.5600000000000023 31.5600000000000023
 27.6400000000000006 29.6000000000000014 31.5600000000000023
 27.6400000000000006 31.5600000000000023 29.6000000000000014
 25.6799999999999997 29.6000000000000014 33.5199999999999960
 25.6799999999999997 31.5600000000000023 35.4800000000000040
 27.6400000000000006 29.6000000000000014 35.4800000000000040
 27.6400000000000006 31.5600000000000023 33.5199999999999960
 25.6799999999999997 29.6000000000000014 37.4399999999999977
 25.6799999999999997 31.5600000000000023 39.3999999999999986
 27.6400000000000006 29.6000000000000014 39.3999999999999986
 27.6400000000000006 31.5600000000000023 37.4399999999999977
 25.6799999999999997 29.6000000000000014 41.3599999999999994
 25.6799999999999997 31.5600000000000023 43.3200000000000003
 27.6400000000000006 29.6000000000000014 43.3200000000000003
 27.6400000000000006 31.5600000000000023 41.3599999999999994
 25.6799999999999997 29.6000000000000014 45.2800000000000011
 27.6400000000000006 29.6000000000000014 47.2400000000000020
 27.6400000000000006 31.5600000000000023 45.2800000000000011
 27.6400000000000006 33.5199999999999960 15.8799999999999990
 25.6799999999999997 33.5199999999999960 17.8399999999999999
 25.6799999999999997 35.4800000000000040 19.8000000000000007
 27.6400000000000006 33.5199999999999960 19.8000000000000007
 27.6400000000000006 35.4800000000000040 17.8399999999999999
 25.6799999999999997 33.5199999999999960 21.7599999999999980
 25.6799999999999997 35.4800000000000040 23.7199999999999989
 27.6400000000000006 33.5199999999999960 23.7199999999999989
 27.6400000000000006 35.4800000000000040 21.7599999999999980
 25.6799999999999997 33.5199999999999960 25.6799999999999997
 25.6799999999999997 35.4800000000000040 27.6400000000000006
 27.6400000000000006 33.5199999999999960 27.6400000000000006
 27.6400000000000006 35.4800000000000040 25.6799999999999997
 25.6799999999999997 33.5199999999999960 29.6000000000000014
 25.6799999999999997 35.4800000000000040 31.5600000000000023
 27.6400000000000006 33.5199999999999960 31.5600000000000023
 27.6400000000000006 35.4800000000000040 29.6000000000000014
 25.6799999999999997 33.5199999999999960 33.5199999999999960
 25.6799999999999997 35.4800000000000040 35.4800000000000040
 27.6400000000000006 33.5199999999999960 35.4800000000000040
 27.6400000000000006 35.4800000000000040 33.5199999999999960
 25.6799999999999997 33.5199999999999960 37.4399999999999977
 25.6799999999999997 35.4800000000000040 39.3999999999999986
 27.6400000000000006 33.5199999999999960 39.3999999999999986
 27.6400000000000006 35.4800000000000040 37.4399999999999977
 25.6799999999999997 33.5199999999999960 41.3599999999999994
 27.6400000000000006 33.5199999999999960 43.3200000000000003
 27.6400000000000006 35.4800000000000040 41.3599999999999994
 27.6400000000000006 37.4399999999999977 19.8000000000000007
 25.6799999999999997 37.4399999999999977 21.7599999999999980
 25.6799999999999997 39.3999999999999986 23.7199999999999989
 27.6400000000000006 37.4399999999999977 23.7199999999999989
 27.6400000000000006 39.3999999999999986 21.7599999999999980
 25.6799999999999997 37.4399999999999977 25.6799999999999997
 25.6799999999999997 39.3999999999999986 27.6400000000000006
 27.6400000000000006 37.4399999999999977 27.6400000000000006
 27.6400000000000006 39.3999999999999986 25.6799999999999997
 25.6799999999999997 37.4399999999999977 29.6000000000000014
 25.6799999999999997 39.3999999999999986 31.5600000000000023
 27.6400000000000006 37.4399999999999977 31.5600000000000023
 27.6400000000000006 39.3999999999999986 29.6000000000000014
 25.6799999999999997 37.4399999999999977 33.5199999999999960
 25.6799999999999997 39.3999999999999986 35.4800000000000040
 27.6400000000000006 37.4399999999999977 35.4800000000000040
 27.6400000000000006 39.3999999999999986 33.5199999999999960
 25.6799999999999997 37.4399999999999977 37.4399999999999977
 27.6400000000000006 37.4399999999999977 39.3999999999999986
 27.6400000000000006 39.3999999999999986 37.4399999999999977
 27.6400000000000006 41.3599999999999994 23.7199999999999989
 25.6799999999999997 41.3599999999999994 25.6799999999999997
 25.6799999999999997 43.3200000000000003 27.6400000000000006
 27.6400000000000006 41.3599999999999994 27.6400000000000006
 27.6400000000000006 43.3200000000000003 25.6799999999999997
 25.6799999999999997 41.3599999999999994 29.6000000000000014
 25.6799999999999997 43.3200000000000003 31.5600000000000023
 27.6400000000000006 41.3599999999999994 31.5600000000000023
 27.6400000000000006 43.3200000000000003 29.6000000000000014
 25.6799999999999997 41.3599999999999994 33.5199999999999960
 27.6400000000000006 41.3599999999999994 35.4800000000000040
 27.6400000000000006 43.3200000000000003 33.5199999999999960
 27.6400000000000006 45.2800000000000011 27.6400000000000006
 25.6799999999999997 45.2800000000000011 29.6000000000000014
 27.6400000000000006 45.2800000000000011 31.5600000000000023
 27.6400000000000006 47.2400000000000020 29.6000000000000014
 29.6000000000000014 11.9600000000000009 27.6400000000000006
 29.6000000000000014 10.0000000000000000 29.6000000000000014
 29.6000000000000014 11.9600000000000009 31.5600000000000023
 31.5600000000000023 11.9600000000000009 29.6000000000000014
 29.6000000000000014 15.8799999999999990 23.7199999999999989
 29.6000000000000014 13.9199999999999999 25.6799999999999997
 29.6000000000000014 15.8799999999999990 27.6400000000000006
 31.5600000000000023 13.9199999999999999 27.6400000000000006
 31.5600000000000023 15.8799999999999990 25.6799999999999997
 29.6000000000000014 13.9199999999999999 29.6000000000000014
 29.6000000000000014 15.8799999999999990 31.5600000000000023
 31.5600000000000023 13.9199999999999999 31.5600000000000023
 31.5600000000000023 15.8799999999999990 29.6000000000000014
 29.6000000000000014 13.9199999999999999 33.5199999999999960
 29.6000000000000014 15.8799999999999990 35.4800000000000040
 31.5600000000000023 15.8799999999999990 33.5199999999999960
 29.6000000000000014 19.8000000000000007 19.8000000000000007
 29.6000000000000014 17.8399999999999999 21.7599999999999980
 29.6000000000000014 19.8000000000000007 23.7199999999999989
 31.5600000000000023 17.8399999999999999 23.7199999999999989
 31.5600000000000023 19.8000000000000007 21.7599999999999980
 29.6000000000000014 17.8399999999999999 25.6799999999999997
 29.6000000000000014 19.8000000000000007 27.6400000000000006
 31.5600000000000023 17.8399999999999999 27.6400000000000006
 31.5600000000000023 19.8000000000000007 25.6799999999999997
 29.6000000000000014 17.8399999999999999 29.6000000000000014
 29.6000000000000014 19.8000000000000007 31.5600000000000023
 31.5600000000000023 17.8399999999999999 31.5600000000000023
 31.5600000000000023 19.8000000000000007 29.6000000000000014
 29.6000000000000014 17.8399999999999999 33.5199999999999960
 29.6000000000000014 19.8000000000000007 35.4800000000000040
 31.5600000000000023 17.8399999999999999 35.4800000000000040
 31.5600000000000023 19.8000000000000007 33.5199999999999960
 29.6000000000000014 17.8399999999999999 37.4399999999999977
 29.6000000000000014 19.8000000000000007 39.3999999999999986
 31.5600000000000023 19.8000000000000007 37.4399999999999977
 29.6000000000000014 23.7199999999999989 15.8799999999999990
 29.6000000000000014 21.7599999999999980 17.8399999999999999
 29.6000000000000014 23.7199999999999989 19.8000000000000007
 31.5600000000000023 21.7599999999999980 19.8000000000000007
 31.5600000000000023 23.7199999999999989 17.8399999999999999
 29.6000000000000014 21.7599999999999980 21.7599999999999980
 29.6000000000000014 23.7199999999999989 23.7199999999999989
 31.5600000000000023 21.7599999999999980 23.7199999999999989
 31.5600000000000023 23.7199999999999989 21.7599999999999980
 29.6000000000000014 21.7599999999999980 25.6799999999999997
 29.6000000000000014 23.7199999999999989 27.6400000000000006
 31.5600000000000023 21.7599999999999980 27.6400000000000006
 31.5600000000000023 23.7199999999999989 25.6799999999999997
 29.6000000000000014 21.7599999999999980 29.6000000000000014
 29.6000000000000014 23.7199999999999989 31.5600000000000023
 31.5600000000000023 21.7599999999999980 31.5600000000000023
 31.5600000000000023 23.7199999999999989 29.6000000000000014
 29.6000000000000014 21.7599999999999980 33.5199999999999960
 29.6000000000000014 23.7199999999999989 35.4800000000000040
 31.5600000000000023 21.7599999999999980 35.4800000000000040
 31.5600000000000023 23.7199999999999989 33.5199999999999960
 29.6000000000000014 21.7599999999999980 37.4399999999999977
 29.6000000000000014 23.7199999999999989 39.3999999999999986
 31.5600000000000023 21.7599999999999980 39.3999999999999986
 31.5600000000000023 23.7199999999999989 37.4399999999999977
 29.6000000000000014 21.7599999999999980 41.3599999999999994
 29.6000000000000014 23.7199999999999989 43.3200000000000003
 31.5600000000000023 23.7199999999999989 41.3599999999999994
 29.6000000000000014 27.6400000000000006 11.9600000000000009
 29.6000000000000014 25.6799999999999997 13.9199999999999999
 29.6000000000000014 27.6400000000000006 15.8799999999999990
 31.5600000000000023 25.6799999999999997 15.8799999999999990
 31.5600000000000023 27.6400000000000006 13.9199999999999999
 29.6000000000000014 25.6799999999999997 17.8399999999999999
 29.6000000000000014 27.6400000000000006 19.8000000000000007
 31.5600000000000023 25.6799999999999997 19.8000000000000007
 31.5600000000000023 27.6400000000000006 17.8399999999999999
 29.6000000000000014 25.6799999999999997 21.7599999999999980
 29.6000000000000014 27.6400000000000006 23.7199999999999989
 31.5600000000000023 25.6799999999999997 23.7199999999999989
 31.5600000000000023 27.6400000000000006 21.7599999999999980
 29.6000000000000014 25.6799999999999997 25.6799999999999997
 29.6000000000000014 27.6400000000000006 27.6400000000000006
 31.5600000000000023 25.6799999999999997 27.6400000000000006
 31.5600000000000023 27.6400000000000006 25.6799999999999997
 29.6000000000000014 25.6799999999999997 29.6000000000000014
 29.6000000000000014 27.6400000000000006 31.5600000000000023
 31.5600000000000023 25.6799999999999997 31.5600000000000023
 31.5600000000000023 27.6400000000000006 29.6000000000000014
 29.6000000000000014 25.6799999999999997 33.5199999999999960
 29.6000000000000014 27.6400000000000006 35.4800000000000040
 31.5600000000000023 25.6799999999999997 35.4800000000000040
 31.5600000000000023 27.6400000000000006 33.5199999999999960
 29.6000000000000014 25.6799999999999997 37.4399999999999977
 29.6000000000000014 27.6400000000000006 39.3999999999999986
 31.5600000000000023 25.6799999999999997 39.3999999999999986
 31.5600000000000023 27.6400000000000006 37.4399999999999977
 29.6000000000000014 25.6799999999999997 41.3599999999999994
 29.6000000000000014 27.6400000000000006 43.3200000000000003
 31.5600000000000023 25.6799999999999997 43.3200000000000003
 31.5600000000000023 27.6400000000000006 41.3599999999999994
 29.6000000000000014 25.6799999999999997 45.2800000000000011
 29.6000000000000014 27.6400000000000006 47.2400000000000020
 31.5600000000000023 27.6400000000000006 45.2800000000000011
 29.6000000000000014 29.6000000000000014 10.0000000000000000
 29.6000000000000014 31.5600000000000023 11.9600000000000009