Au 
 1.0000000000000000
    60.2628983442473043    0.0000000000000000    0.0000000000000000
     0.0000000000000000   58.2922918352257398    0.0000000000000000
     0.0000000000000000    0.0000000000000000   63.2749350086167084
 Au 
 1941
Cartesian
 30.1314491721236521 30.2131240604788367 10.0000000000000000
 30.1314491721236521 30.2131240604788367 12.8849956672411139
 30.1314491721236521 30.2131240604788367 15.7699913344822278
 30.1314491721236521 30.2131240604788367 18.6549870017233417
 30.1314491721236521 30.2131240604788367 21.5399826689644556
 30.1314491721236521 30.2131240604788367 24.4249783362055695
 30.1314491721236521 30.2131240604788367 27.3099740034466834
 30.1314491721236521 30.2131240604788367 30.1949696706877972
 30.1314491721236521 30.2131240604788367 33.0799653379289111
 30.1314491721236521 30.2131240604788367 35.9649610051700250
 30.1314491721236521 30.2131240604788367 38.8499566724111389
 30.1314491721236521 30.2131240604788367 41.7349523396522528
 30.1314491721236521 30.2131240604788367 44.6199480068933667
 30.1314491721236521 30.2131240604788367 47.5049436741344806
 30.1314491721236521 30.2131240604788367 50.3899393413755945
 30.1314491721236521 30.2131240604788367 53.2749350086167084
 32.5076444172251726 30.9851966977072983 11.4424978336205569
 32.5076444172251726 30.9851966977072983 14.3274935008616708
 32.5076444172251726 30.9851966977072983 17.2124891681027847
 32.5076444172251726 30.9851966977072983 20.0974848353438986
 32.5076444172251726 30.9851966977072983 22.9824805025850125
 32.5076444172251726 30.9851966977072983 25.8674761698261264
 32.5076444172251726 30.9851966977072983 28.7524718370672403
 32.5076444172251726 30.9851966977072983 31.6374675043083542
 32.5076444172251726 30.9851966977072983 34.5224631715494681
 32.5076444172251726 30.9851966977072983 37.4074588387905820
 32.5076444172251726 30.9851966977072983 40.2924545060316959
 32.5076444172251726 30.9851966977072983 43.1774501732728098
 32.5076444172251726 30.9851966977072983 46.0624458405139237
 32.5076444172251726 30.9851966977072983 48.9474415077550375
 32.5076444172251726 30.9851966977072983 51.8324371749961514
 30.1314491721236521 32.7116035981176765 11.4424978336205569
 30.1314491721236521 32.7116035981176765 14.3274935008616708
 30.1314491721236521 32.7116035981176765 17.2124891681027847
 30.1314491721236521 32.7116035981176765 20.0974848353438986
 30.1314491721236521 32.7116035981176765 22.9824805025850125
 30.1314491721236521 32.7116035981176765 25.8674761698261264
 30.1314491721236521 32.7116035981176765 28.7524718370672403
 30.1314491721236521 32.7116035981176765 31.6374675043083542
 30.1314491721236521 32.7116035981176765 34.5224631715494681
 30.1314491721236521 32.7116035981176765 37.4074588387905820
 30.1314491721236521 32.7116035981176765 40.2924545060316959
 30.1314491721236521 32.7116035981176765 43.1774501732728098
 30.1314491721236521 32.7116035981176765 46.0624458405139237
 30.1314491721236521 32.7116035981176765 48.9474415077550375
 30.1314491721236521 32.7116035981176765 51.8324371749961514
 27.7552539270221281 30.9851966977072983 11.4424978336205569
 27.7552539270221281 30.9851966977072983 14.3274935008616708
 27.7552539270221281 30.9851966977072983 17.2124891681027847
 27.7552539270221281 30.9851966977072983 20.0974848353438986
 27.7552539270221281 30.9851966977072983 22.9824805025850125
 27.7552539270221281 30.9851966977072983 25.8674761698261264
 27.7552539270221281 30.9851966977072983 28.7524718370672403
 27.7552539270221281 30.9851966977072983 31.6374675043083542
 27.7552539270221281 30.9851966977072983 34.5224631715494681
 27.7552539270221281 30.9851966977072983 37.4074588387905820
 27.7552539270221281 30.9851966977072983 40.2924545060316959
 27.7552539270221281 30.9851966977072983 43.1774501732728098
 27.7552539270221281 30.9851966977072983 46.0624458405139237
 27.7552539270221281 30.9851966977072983 48.9474415077550375
 27.7552539270221281 30.9851966977072983 51.8324371749961514
 28.6628797467450234 28.1918116544309534 11.4424978336205569
 28.6628797467450234 28.1918116544309534 14.3274935008616708
 28.6628797467450234 28.1918116544309534 17.2124891681027847
 28.6628797467450234 28.1918116544309534 20.0974848353438986
 28.6628797467450234 28.1918116544309534 22.9824805025850125
 28.6628797467450234 28.1918116544309534 25.8674761698261264
 28.6628797467450234 28.1918116544309534 28.7524718370672403
 28.6628797467450234 28.1918116544309534 31.6374675043083542
 28.6628797467450234 28.1918116544309534 34.5224631715494681
 28.6628797467450234 28.1918116544309534 37.4074588387905820
 28.6628797467450234 28.1918116544309534 40.2924545060316959
 28.6628797467450234 28.1918116544309534 43.1774501732728098
 28.6628797467450234 28.1918116544309534 46.0624458405139237
 28.6628797467450234 28.1918116544309534 48.9474415077550375
 28.6628797467450234 28.1918116544309534 51.8324371749961514
 31.6000185975022809 28.1918116544309534 11.4424978336205569
 31.6000185975022809 28.1918116544309534 14.3274935008616708
 31.6000185975022809 28.1918116544309534 17.2124891681027847
 31.6000185975022809 28.1918116544309534 20.0974848353438986
 31.6000185975022809 28.1918116544309534 22.9824805025850125
 31.6000185975022809 28.1918116544309534 25.8674761698261264
 31.6000185975022809 28.1918116544309534 28.7524718370672403
 31.6000185975022809 28.1918116544309534 31.6374675043083542
 31.6000185975022809 28.1918116544309534 34.5224631715494681
 31.6000185975022809 28.1918116544309534 37.4074588387905820
 31.6000185975022809 28.1918116544309534 40.2924545060316959
 31.6000185975022809 28.1918116544309534 43.1774501732728098
 31.6000185975022809 28.1918116544309534 46.0624458405139237
 31.6000185975022809 28.1918116544309534 48.9474415077550375
 31.6000185975022809 28.1918116544309534 51.8324371749961514
 34.8838396623267002 31.7572693349357635 12.8849956672411139
 34.8838396623267002 31.7572693349357635 15.7699913344822278
 34.8838396623267002 31.7572693349357635 18.6549870017233417
 34.8838396623267002 31.7572693349357635 21.5399826689644556
 34.8838396623267002 31.7572693349357635 24.4249783362055695
 34.8838396623267002 31.7572693349357635 27.3099740034466834
 34.8838396623267002 31.7572693349357635 30.1949696706877972
 34.8838396623267002 31.7572693349357635 33.0799653379289111
 34.8838396623267002 31.7572693349357635 35.9649610051700250
 34.8838396623267002 31.7572693349357635 38.8499566724111389
 34.8838396623267002 31.7572693349357635 41.7349523396522528
 34.8838396623267002 31.7572693349357635 44.6199480068933667
 34.8838396623267002 31.7572693349357635 47.5049436741344806
 34.8838396623267002 31.7572693349357635 50.3899393413755945
 32.5076444172251726 33.4836762353461381 12.8849956672411139
 32.5076444172251726 33.4836762353461381 15.7699913344822278
 32.5076444172251726 33.4836762353461381 18.6549870017233417
 32.5076444172251726 33.4836762353461381 21.5399826689644556
 32.5076444172251726 33.4836762353461381 24.4249783362055695
 32.5076444172251726 33.4836762353461381 27.3099740034466834
 32.5076444172251726 33.4836762353461381 30.1949696706877972
 32.5076444172251726 33.4836762353461381 33.0799653379289111
 32.5076444172251726 33.4836762353461381 35.9649610051700250
 32.5076444172251726 33.4836762353461381 38.8499566724111389
 32.5076444172251726 33.4836762353461381 41.7349523396522528
 32.5076444172251726 33.4836762353461381 44.6199480068933667
 32.5076444172251726 33.4836762353461381 47.5049436741344806
 32.5076444172251726 33.4836762353461381 50.3899393413755945
 30.1314491721236521 35.2100831357565198 12.8849956672411139
 30.1314491721236521 35.2100831357565198 15.7699913344822278
 30.1314491721236521 35.2100831357565198 18.6549870017233417
 30.1314491721236521 35.2100831357565198 21.5399826689644556
 30.1314491721236521 35.2100831357565198 24.4249783362055695
 30.1314491721236521 35.2100831357565198 27.3099740034466834
 30.1314491721236521 35.2100831357565198 30.1949696706877972
 30.1314491721236521 35.2100831357565198 33.0799653379289111
 30.1314491721236521 35.2100831357565198 35.9649610051700250
 30.1314491721236521 35.2100831357565198 38.8499566724111389
 30.1314491721236521 35.2100831357565198 41.7349523396522528
 30.1314491721236521 35.2100831357565198 44.6199480068933667
 30.1314491721236521 35.2100831357565198 47.5049436741344806
 30.1314491721236521 35.2100831357565198 50.3899393413755945
 27.7552539270221281 33.4836762353461381 12.8849956672411139
 27.7552539270221281 33.4836762353461381 15.7699913344822278
 27.7552539270221281 33.4836762353461381 18.6549870017233417
 27.7552539270221281 33.4836762353461381 21.5399826689644556
 27.7552539270221281 33.4836762353461381 24.4249783362055695
 27.7552539270221281 33.4836762353461381 27.3099740034466834
 27.7552539270221281 33.4836762353461381 30.1949696706877972
 27.7552539270221281 33.4836762353461381 33.0799653379289111
 27.7552539270221281 33.4836762353461381 35.9649610051700250
 27.7552539270221281 33.4836762353461381 38.8499566724111389
 27.7552539270221281 33.4836762353461381 41.7349523396522528
 27.7552539270221281 33.4836762353461381 44.6199480068933667
 27.7552539270221281 33.4836762353461381 47.5049436741344806
 27.7552539270221281 33.4836762353461381 50.3899393413755945
 25.3790586819206077 31.7572693349357635 12.8849956672411139
 25.3790586819206077 31.7572693349357635 15.7699913344822278
 25.3790586819206077 31.7572693349357635 18.6549870017233417
 25.3790586819206077 31.7572693349357635 21.5399826689644556
 25.3790586819206077 31.7572693349357635 24.4249783362055695
 25.3790586819206077 31.7572693349357635 27.3099740034466834
 25.3790586819206077 31.7572693349357635 30.1949696706877972
 25.3790586819206077 31.7572693349357635 33.0799653379289111
 25.3790586819206077 31.7572693349357635 35.9649610051700250
 25.3790586819206077 31.7572693349357635 38.8499566724111389
 25.3790586819206077 31.7572693349357635 41.7349523396522528
 25.3790586819206077 31.7572693349357635 44.6199480068933667
 25.3790586819206077 31.7572693349357635 47.5049436741344806
 25.3790586819206077 31.7572693349357635 50.3899393413755945
 26.2866845016434993 28.9638842916594150 12.8849956672411139
 26.2866845016434993 28.9638842916594150 15.7699913344822278
 26.2866845016434993 28.9638842916594150 18.6549870017233417
 26.2866845016434993 28.9638842916594150 21.5399826689644556
 26.2866845016434993 28.9638842916594150 24.4249783362055695
 26.2866845016434993 28.9638842916594150 27.3099740034466834
 26.2866845016434993 28.9638842916594150 30.1949696706877972
 26.2866845016434993 28.9638842916594150 33.0799653379289111
 26.2866845016434993 28.9638842916594150 35.9649610051700250
 26.2866845016434993 28.9638842916594150 38.8499566724111389
 26.2866845016434993 28.9638842916594150 41.7349523396522528
 26.2866845016434993 28.9638842916594150 44.6199480068933667
 26.2866845016434993 28.9638842916594150 47.5049436741344806
 26.2866845016434993 28.9638842916594150 50.3899393413755945
 27.1943103213663946 26.1704992483830701 12.8849956672411139
 27.1943103213663946 26.1704992483830701 15.7699913344822278
 27.1943103213663946 26.1704992483830701 18.6549870017233417
 27.1943103213663946 26.1704992483830701 21.5399826689644556
 27.1943103213663946 26.1704992483830701 24.4249783362055695
 27.1943103213663946 26.1704992483830701 27.3099740034466834
 27.1943103213663946 26.1704992483830701 30.1949696706877972
 27.1943103213663946 26.1704992483830701 33.0799653379289111
 27.1943103213663946 26.1704992483830701 35.9649610051700250
 27.1943103213663946 26.1704992483830701 38.8499566724111389
 27.1943103213663946 26.1704992483830701 41.7349523396522528
 27.1943103213663946 26.1704992483830701 44.6199480068933667
 27.1943103213663946 26.1704992483830701 47.5049436741344806
 27.1943103213663946 26.1704992483830701 50.3899393413755945
 30.1314491721236521 26.1704992483830665 12.8849956672411139
 30.1314491721236521 26.1704992483830665 15.7699913344822278
 30.1314491721236521 26.1704992483830665 18.6549870017233417
 30.1314491721236521 26.1704992483830665 21.5399826689644556
 30.1314491721236521 26.1704992483830665 24.4249783362055695
 30.1314491721236521 26.1704992483830665 27.3099740034466834
 30.1314491721236521 26.1704992483830665 30.1949696706877972
 30.1314491721236521 26.1704992483830665 33.0799653379289111
 30.1314491721236521 26.1704992483830665 35.9649610051700250
 30.1314491721236521 26.1704992483830665 38.8499566724111389
 30.1314491721236521 26.1704992483830665 41.7349523396522528
 30.1314491721236521 26.1704992483830665 44.6199480068933667
 30.1314491721236521 26.1704992483830665 47.5049436741344806
 30.1314491721236521 26.1704992483830665 50.3899393413755945
 33.0685880228809097 26.1704992483830665 12.8849956672411139
 33.0685880228809097 26.1704992483830665 15.7699913344822278
 33.0685880228809097 26.1704992483830665 18.6549870017233417
 33.0685880228809097 26.1704992483830665 21.5399826689644556
 33.0685880228809097 26.1704992483830665 24.4249783362055695
 33.0685880228809097 26.1704992483830665 27.3099740034466834
 33.0685880228809097 26.1704992483830665 30.1949696706877972
 33.0685880228809097 26.1704992483830665 33.0799653379289111
 33.0685880228809097 26.1704992483830665 35.9649610051700250
 33.0685880228809097 26.1704992483830665 38.8499566724111389
 33.0685880228809097 26.1704992483830665 41.7349523396522528
 33.0685880228809097 26.1704992483830665 44.6199480068933667
 33.0685880228809097 26.1704992483830665 47.5049436741344806
 33.0685880228809097 26.1704992483830665 50.3899393413755945
 33.9762138426038049 28.9638842916594150 12.8849956672411139
 33.9762138426038049 28.9638842916594150 15.7699913344822278
 33.9762138426038049 28.9638842916594150 18.6549870017233417
 33.9762138426038049 28.9638842916594150 21.5399826689644556
 33.9762138426038049 28.9638842916594150 24.4249783362055695
 33.9762138426038049 28.9638842916594150 27.3099740034466834
 33.9762138426038049 28.9638842916594150 30.1949696706877972
 33.9762138426038049 28.9638842916594150 33.0799653379289111
 33.9762138426038049 28.9638842916594150 35.9649610051700250
 33.9762138426038049 28.9638842916594150 38.8499566724111389
 33.9762138426038049 28.9638842916594150 41.7349523396522528
 33.9762138426038049 28.9638842916594150 44.6199480068933667
 33.9762138426038049 28.9638842916594150 47.5049436741344806
 33.9762138426038049 28.9638842916594150 50.3899393413755945
 37.2600349074282207 32.5293419721642252 14.3274935008616708
 37.2600349074282207 32.5293419721642252 17.2124891681027847
 37.2600349074282207 32.5293419721642252 20.0974848353438986
 37.2600349074282207 32.5293419721642252 22.9824805025850125
 37.2600349074282207 32.5293419721642252 25.8674761698261264
 37.2600349074282207 32.5293419721642252 28.7524718370672403
 37.2600349074282207 32.5293419721642252 31.6374675043083542
 37.2600349074282207 32.5293419721642252 34.5224631715494681
 37.2600349074282207 32.5293419721642252 37.4074588387905820
 37.2600349074282207 32.5293419721642252 40.2924545060316959
 37.2600349074282207 32.5293419721642252 43.1774501732728098
 37.2600349074282207 32.5293419721642252 46.0624458405139237
 37.2600349074282207 32.5293419721642252 48.9474415077550375
 34.8838396623267002 34.2557488725745998 14.3274935008616708
 34.8838396623267002 34.2557488725745998 17.2124891681027847
 34.8838396623267002 34.2557488725745998 20.0974848353438986
 34.8838396623267002 34.2557488725745998 22.9824805025850125
 34.8838396623267002 34.2557488725745998 25.8674761698261264
 34.8838396623267002 34.2557488725745998 28.7524718370672403
 34.8838396623267002 34.2557488725745998 31.6374675043083542
 34.8838396623267002 34.2557488725745998 34.5224631715494681
 34.8838396623267002 34.2557488725745998 37.4074588387905820
 34.8838396623267002 34.2557488725745998 40.2924545060316959
 34.8838396623267002 34.2557488725745998 43.1774501732728098
 34.8838396623267002 34.2557488725745998 46.0624458405139237
 34.8838396623267002 34.2557488725745998 48.9474415077550375
 32.5076444172251726 35.9821557729849815 14.3274935008616708
 32.5076444172251726 35.9821557729849815 17.2124891681027847
 32.5076444172251726 35.9821557729849815 20.0974848353438986
 32.5076444172251726 35.9821557729849815 22.9824805025850125
 32.5076444172251726 35.9821557729849815 25.8674761698261264
 32.5076444172251726 35.9821557729849815 28.7524718370672403
 32.5076444172251726 35.9821557729849815 31.6374675043083542
 32.5076444172251726 35.9821557729849815 34.5224631715494681
 32.5076444172251726 35.9821557729849815 37.4074588387905820
 32.5076444172251726 35.9821557729849815 40.2924545060316959
 32.5076444172251726 35.9821557729849815 43.1774501732728098
 32.5076444172251726 35.9821557729849815 46.0624458405139237
 32.5076444172251726 35.9821557729849815 48.9474415077550375
 30.1314491721236521 37.7085626733953632 14.3274935008616708
 30.1314491721236521 37.7085626733953632 17.2124891681027847
 30.1314491721236521 37.7085626733953632 20.0974848353438986
 30.1314491721236521 37.7085626733953632 22.9824805025850125
 30.1314491721236521 37.7085626733953632 25.8674761698261264
 30.1314491721236521 37.7085626733953632 28.7524718370672403
 30.1314491721236521 37.7085626733953632 31.6374675043083542
 30.1314491721236521 37.7085626733953632 34.5224631715494681
 30.1314491721236521 37.7085626733953632 37.4074588387905820
 30.1314491721236521 37.7085626733953632 40.2924545060316959
 30.1314491721236521 37.7085626733953632 43.1774501732728098
 30.1314491721236521 37.7085626733953632 46.0624458405139237
 30.1314491721236521 37.7085626733953632 48.9474415077550375
 27.7552539270221317 35.9821557729849815 14.3274935008616708
 27.7552539270221317 35.9821557729849815 17.2124891681027847
 27.7552539270221317 35.9821557729849815 20.0974848353438986
 27.7552539270221317 35.9821557729849815 22.9824805025850125
 27.7552539270221317 35.9821557729849815 25.8674761698261264
 27.7552539270221317 35.9821557729849815 28.7524718370672403
 27.7552539270221317 35.9821557729849815 31.6374675043083542
 27.7552539270221317 35.9821557729849815 34.5224631715494681
 27.7552539270221317 35.9821557729849815 37.4074588387905820
 27.7552539270221317 35.9821557729849815 40.2924545060316959
 27.7552539270221317 35.9821557729849815 43.1774501732728098
 27.7552539270221317 35.9821557729849815 46.0624458405139237
 27.7552539270221317 35.9821557729849815 48.9474415077550375
 25.3790586819206077 34.2557488725746069 14.3274935008616708
 25.3790586819206077 34.2557488725746069 17.2124891681027847
 25.3790586819206077 34.2557488725746069 20.0974848353438986
 25.3790586819206077 34.2557488725746069 22.9824805025850125
 25.3790586819206077 34.2557488725746069 25.8674761698261264
 25.3790586819206077 34.2557488725746069 28.7524718370672403
 25.3790586819206077 34.2557488725746069 31.6374675043083542
 25.3790586819206077 34.2557488725746069 34.5224631715494681
 25.3790586819206077 34.2557488725746069 37.4074588387905820
 25.3790586819206077 34.2557488725746069 40.2924545060316959
 25.3790586819206077 34.2557488725746069 43.1774501732728098
 25.3790586819206077 34.2557488725746069 46.0624458405139237
 25.3790586819206077 34.2557488725746069 48.9474415077550375
 23.0028634368190836 32.5293419721642252 14.3274935008616708
 23.0028634368190836 32.5293419721642252 17.2124891681027847
 23.0028634368190836 32.5293419721642252 20.0974848353438986
 23.0028634368190836 32.5293419721642252 22.9824805025850125
 23.0028634368190836 32.5293419721642252 25.8674761698261264
 23.0028634368190836 32.5293419721642252 28.7524718370672403
 23.0028634368190836 32.5293419721642252 31.6374675043083542
 23.0028634368190836 32.5293419721642252 34.5224631715494681
 23.0028634368190836 32.5293419721642252 37.4074588387905820
 23.0028634368190836 32.5293419721642252 40.2924545060316959
 23.0028634368190836 32.5293419721642252 43.1774501732728098
 23.0028634368190836 32.5293419721642252 46.0624458405139237
 23.0028634368190836 32.5293419721642252 48.9474415077550375
 23.9104892565419789 29.7359569288878802 14.3274935008616708
 23.9104892565419789 29.7359569288878802 17.2124891681027847
 23.9104892565419789 29.7359569288878802 20.0974848353438986
 23.9104892565419789 29.7359569288878802 22.9824805025850125
 23.9104892565419789 29.7359569288878802 25.8674761698261264
 23.9104892565419789 29.7359569288878802 28.7524718370672403
 23.9104892565419789 29.7359569288878802 31.6374675043083542
 23.9104892565419789 29.7359569288878802 34.5224631715494681
 23.9104892565419789 29.7359569288878802 37.4074588387905820
 23.9104892565419789 29.7359569288878802 40.2924545060316959
 23.9104892565419789 29.7359569288878802 43.1774501732728098
 23.9104892565419789 29.7359569288878802 46.0624458405139237
 23.9104892565419789 29.7359569288878802 48.9474415077550375
 24.8181150762648741 26.9425718856115317 14.3274935008616708
 24.8181150762648741 26.9425718856115317 17.2124891681027847
 24.8181150762648741 26.9425718856115317 20.0974848353438986
 24.8181150762648741 26.9425718856115317 22.9824805025850125
 24.8181150762648741 26.9425718856115317 25.8674761698261264
 24.8181150762648741 26.9425718856115317 28.7524718370672403
 24.8181150762648741 26.9425718856115317 31.6374675043083542
 24.8181150762648741 26.9425718856115317 34.5224631715494681
 24.8181150762648741 26.9425718856115317 37.4074588387905820
 24.8181150762648741 26.9425718856115317 40.2924545060316959
 24.8181150762648741 26.9425718856115317 43.1774501732728098
 24.8181150762648741 26.9425718856115317 46.0624458405139237
 24.8181150762648741 26.9425718856115317 48.9474415077550375
 25.7257408959877694 24.1491868423351832 14.3274935008616708
 25.7257408959877694 24.1491868423351832 17.2124891681027847
 25.7257408959877694 24.1491868423351832 20.0974848353438986
 25.7257408959877694 24.1491868423351832 22.9824805025850125
 25.7257408959877694 24.1491868423351832 25.8674761698261264
 25.7257408959877694 24.1491868423351832 28.7524718370672403
 25.7257408959877694 24.1491868423351832 31.6374675043083542
 25.7257408959877694 24.1491868423351832 34.5224631715494681
 25.7257408959877694 24.1491868423351832 37.4074588387905820
 25.7257408959877694 24.1491868423351832 40.2924545060316959
 25.7257408959877694 24.1491868423351832 43.1774501732728098
 25.7257408959877694 24.1491868423351832 46.0624458405139237
 25.7257408959877694 24.1491868423351832 48.9474415077550375
 28.6628797467450234 24.1491868423351832 14.3274935008616708
 28.6628797467450234 24.1491868423351832 17.2124891681027847
 28.6628797467450234 24.1491868423351832 20.0974848353438986
 28.6628797467450234 24.1491868423351832 22.9824805025850125
 28.6628797467450234 24.1491868423351832 25.8674761698261264
 28.6628797467450234 24.1491868423351832 28.7524718370672403
 28.6628797467450234 24.1491868423351832 31.6374675043083542
 28.6628797467450234 24.1491868423351832 34.5224631715494681
 28.6628797467450234 24.1491868423351832 37.4074588387905820
 28.6628797467450234 24.1491868423351832 40.2924545060316959
 28.6628797467450234 24.1491868423351832 43.1774501732728098
 28.6628797467450234 24.1491868423351832 46.0624458405139237
 28.6628797467450234 24.1491868423351832 48.9474415077550375
 31.6000185975022774 24.1491868423351832 14.3274935008616708
 31.6000185975022774 24.1491868423351832 17.2124891681027847
 31.6000185975022774 24.1491868423351832 20.0974848353438986
 31.6000185975022774 24.1491868423351832 22.9824805025850125
 31.6000185975022774 24.1491868423351832 25.8674761698261264
 31.6000185975022774 24.1491868423351832 28.7524718370672403
 31.6000185975022774 24.1491868423351832 31.6374675043083542
 31.6000185975022774 24.1491868423351832 34.5224631715494681
 31.6000185975022774 24.1491868423351832 37.4074588387905820
 31.6000185975022774 24.1491868423351832 40.2924545060316959
 31.6000185975022774 24.1491868423351832 43.1774501732728098
 31.6000185975022774 24.1491868423351832 46.0624458405139237
 31.6000185975022774 24.1491868423351832 48.9474415077550375
 34.5371574482595349 24.1491868423351832 14.3274935008616708
 34.5371574482595349 24.1491868423351832 17.2124891681027847
 34.5371574482595349 24.1491868423351832 20.0974848353438986
 34.5371574482595349 24.1491868423351832 22.9824805025850125
 34.5371574482595349 24.1491868423351832 25.8674761698261264
 34.5371574482595349 24.1491868423351832 28.7524718370672403
 34.5371574482595349 24.1491868423351832 31.6374675043083542
 34.5371574482595349 24.1491868423351832 34.5224631715494681
 34.5371574482595349 24.1491868423351832 37.4074588387905820
 34.5371574482595349 24.1491868423351832 40.2924545060316959
 34.5371574482595349 24.1491868423351832 43.1774501732728098
 34.5371574482595349 24.1491868423351832 46.0624458405139237
 34.5371574482595349 24.1491868423351832 48.9474415077550375
 35.4447832679824302 26.9425718856115317 14.3274935008616708
 35.4447832679824302 26.9425718856115317 17.2124891681027847
 35.4447832679824302 26.9425718856115317 20.0974848353438986
 35.4447832679824302 26.9425718856115317 22.9824805025850125
 35.4447832679824302 26.9425718856115317 25.8674761698261264
 35.4447832679824302 26.9425718856115317 28.7524718370672403
 35.4447832679824302 26.9425718856115317 31.6374675043083542
 35.4447832679824302 26.9425718856115317 34.5224631715494681
 35.4447832679824302 26.9425718856115317 37.4074588387905820
 35.4447832679824302 26.9425718856115317 40.2924545060316959
 35.4447832679824302 26.9425718856115317 43.1774501732728098
 35.4447832679824302 26.9425718856115317 46.0624458405139237
 35.4447832679824302 26.9425718856115317 48.9474415077550375
 36.3524090877053254 29.7359569288878767 14.3274935008616708
 36.3524090877053254 29.7359569288878767 17.2124891681027847
 36.3524090877053254 29.7359569288878767 20.0974848353438986
 36.3524090877053254 29.7359569288878767 22.9824805025850125
 36.3524090877053254 29.7359569288878767 25.8674761698261264
 36.3524090877053254 29.7359569288878767 28.7524718370672403
 36.3524090877053254 29.7359569288878767 31.6374675043083542
 36.3524090877053254 29.7359569288878767 34.5224631715494681
 36.3524090877053254 29.7359569288878767 37.4074588387905820
 36.3524090877053254 29.7359569288878767 40.2924545060316959
 36.3524090877053254 29.7359569288878767 43.1774501732728098
 36.3524090877053254 29.7359569288878767 46.0624458405139237
 36.3524090877053254 29.7359569288878767 48.9474415077550375
 39.6362301525297411 33.3014146093926868 15.7699913344822278
 39.6362301525297411 33.3014146093926868 18.6549870017233417
 39.6362301525297411 33.3014146093926868 21.5399826689644556
 39.6362301525297411 33.3014146093926868 24.4249783362055695
 39.6362301525297411 33.3014146093926868 27.3099740034466834
 39.6362301525297411 33.3014146093926868 30.1949696706877972
 39.6362301525297411 33.3014146093926868 33.0799653379289111
 39.6362301525297411 33.3014146093926868 35.9649610051700250
 39.6362301525297411 33.3014146093926868 38.8499566724111389
 39.6362301525297411 33.3014146093926868 41.7349523396522528
 39.6362301525297411 33.3014146093926868 44.6199480068933667
 39.6362301525297411 33.3014146093926868 47.5049436741344806
 37.2600349074282207 35.0278215098030685 15.7699913344822278
 37.2600349074282207 35.0278215098030685 18.6549870017233417
 37.2600349074282207 35.0278215098030685 21.5399826689644556
 37.2600349074282207 35.0278215098030685 24.4249783362055695
 37.2600349074282207 35.0278215098030685 27.3099740034466834
 37.2600349074282207 35.0278215098030685 30.1949696706877972
 37.2600349074282207 35.0278215098030685 33.0799653379289111
 37.2600349074282207 35.0278215098030685 35.9649610051700250
 37.2600349074282207 35.0278215098030685 38.8499566724111389
 37.2600349074282207 35.0278215098030685 41.7349523396522528
 37.2600349074282207 35.0278215098030685 44.6199480068933667
 37.2600349074282207 35.0278215098030685 47.5049436741344806
 34.8838396623267002 36.7542284102134431 15.7699913344822278
 34.8838396623267002 36.7542284102134431 18.6549870017233417
 34.8838396623267002 36.7542284102134431 21.5399826689644556
 34.8838396623267002 36.7542284102134431 24.4249783362055695
 34.8838396623267002 36.7542284102134431 27.3099740034466834
 34.8838396623267002 36.7542284102134431 30.1949696706877972
 34.8838396623267002 36.7542284102134431 33.0799653379289111
 34.8838396623267002 36.7542284102134431 35.9649610051700250
 34.8838396623267002 36.7542284102134431 38.8499566724111389
 34.8838396623267002 36.7542284102134431 41.7349523396522528
 34.8838396623267002 36.7542284102134431 44.6199480068933667
 34.8838396623267002 36.7542284102134431 47.5049436741344806
 32.5076444172251726 38.4806353106238248 15.7699913344822278
 32.5076444172251726 38.4806353106238248 18.6549870017233417
 32.5076444172251726 38.4806353106238248 21.5399826689644556
 32.5076444172251726 38.4806353106238248 24.4249783362055695
 32.5076444172251726 38.4806353106238248 27.3099740034466834
 32.5076444172251726 38.4806353106238248 30.1949696706877972
 32.5076444172251726 38.4806353106238248 33.0799653379289111
 32.5076444172251726 38.4806353106238248 35.9649610051700250
 32.5076444172251726 38.4806353106238248 38.8499566724111389
 32.5076444172251726 38.4806353106238248 41.7349523396522528
 32.5076444172251726 38.4806353106238248 44.6199480068933667
 32.5076444172251726 38.4806353106238248 47.5049436741344806
 30.1314491721236521 40.2070422110342065 15.7699913344822278
 30.1314491721236521 40.2070422110342065 18.6549870017233417
 30.1314491721236521 40.2070422110342065 21.5399826689644556
 30.1314491721236521 40.2070422110342065 24.4249783362055695
 30.1314491721236521 40.2070422110342065 27.3099740034466834
 30.1314491721236521 40.2070422110342065 30.1949696706877972
 30.1314491721236521 40.2070422110342065 33.0799653379289111
 30.1314491721236521 40.2070422110342065 35.9649610051700250
 30.1314491721236521 40.2070422110342065 38.8499566724111389
 30.1314491721236521 40.2070422110342065 41.7349523396522528
 30.1314491721236521 40.2070422110342065 44.6199480068933667
 30.1314491721236521 40.2070422110342065 47.5049436741344806
 27.7552539270221317 38.4806353106238248 15.7699913344822278