Pt 
 1.0000000000000000
    53.0400472841942445    0.0000000000000000    0.0000000000000000
     0.0000000000000000   51.4229522683329279    0.0000000000000000
     0.0000000000000000    0.0000000000000000   47.7185858225126651
 Pt 
 906
Cartesian
 26.5200236420971223 25.5363620229562827 10.0000000000000018
 26.5200236420971223 25.5363620229562827 12.7718585822512676
 26.5200236420971223 25.5363620229562827 15.5437171645025352
 26.5200236420971223 25.5363620229562827 18.3155757467538010
 26.5200236420971223 25.5363620229562827 21.0874343290050668
 26.5200236420971223 25.5363620229562827 23.8592929112563326
 26.5200236420971223 25.5363620229562827 26.6311514935076019
 26.5200236420971223 25.5363620229562827 29.4030100757588642
 26.5200236420971223 25.5363620229562827 32.1748686580101335
 26.5200236420971223 25.5363620229562827 34.9467272402613958
 26.5200236420971223 25.5363620229562827 37.7185858225126651
 28.8030347599397629 26.2781573018620591 11.3859292911256347
 28.8030347599397629 26.2781573018620591 14.1577878733769005
 28.8030347599397629 26.2781573018620591 16.9296464556281663
 28.8030347599397629 26.2781573018620591 19.7015050378794356
 28.8030347599397629 26.2781573018620591 22.4733636201306979
 28.8030347599397629 26.2781573018620591 25.2452222023819672
 28.8030347599397629 26.2781573018620591 28.0170807846332330
 28.8030347599397629 26.2781573018620591 30.7889393668844988
 28.8030347599397629 26.2781573018620591 33.5607979491357611
 28.8030347599397629 26.2781573018620591 36.3326565313870304
 26.5200236420971223 27.9368619708837969 11.3859292911256347
 26.5200236420971223 27.9368619708837969 14.1577878733769005
 26.5200236420971223 27.9368619708837969 16.9296464556281663
 26.5200236420971223 27.9368619708837969 19.7015050378794356
 26.5200236420971223 27.9368619708837969 22.4733636201306979
 26.5200236420971223 27.9368619708837969 25.2452222023819672
 26.5200236420971223 27.9368619708837969 28.0170807846332330
 26.5200236420971223 27.9368619708837969 30.7889393668844988
 26.5200236420971223 27.9368619708837969 33.5607979491357611
 26.5200236420971223 27.9368619708837969 36.3326565313870304
 24.2370125242544816 26.2781573018620627 11.3859292911256347
 24.2370125242544816 26.2781573018620627 14.1577878733769005
 24.2370125242544816 26.2781573018620627 16.9296464556281663
 24.2370125242544816 26.2781573018620627 19.7015050378794356
 24.2370125242544816 26.2781573018620627 22.4733636201306979
 24.2370125242544816 26.2781573018620627 25.2452222023819672
 24.2370125242544816 26.2781573018620627 28.0170807846332330
 24.2370125242544816 26.2781573018620627 30.7889393668844988
 24.2370125242544816 26.2781573018620627 33.5607979491357611
 24.2370125242544816 26.2781573018620627 36.3326565313870304
 25.1090451745764796 23.5943167700867491 11.3859292911256347
 25.1090451745764796 23.5943167700867491 14.1577878733769005
 25.1090451745764796 23.5943167700867491 16.9296464556281663
 25.1090451745764796 23.5943167700867491 19.7015050378794356
 25.1090451745764796 23.5943167700867491 22.4733636201306979
 25.1090451745764796 23.5943167700867491 25.2452222023819672
 25.1090451745764796 23.5943167700867491 28.0170807846332330
 25.1090451745764796 23.5943167700867491 30.7889393668844988
 25.1090451745764796 23.5943167700867491 33.5607979491357611
 25.1090451745764796 23.5943167700867491 36.3326565313870304
 27.9310021096177650 23.5943167700867455 11.3859292911256347
 27.9310021096177650 23.5943167700867455 14.1577878733769005
 27.9310021096177650 23.5943167700867455 16.9296464556281663
 27.9310021096177650 23.5943167700867455 19.7015050378794356
 27.9310021096177650 23.5943167700867455 22.4733636201306979
 27.9310021096177650 23.5943167700867455 25.2452222023819672
 27.9310021096177650 23.5943167700867455 28.0170807846332330
 27.9310021096177650 23.5943167700867455 30.7889393668844988
 27.9310021096177650 23.5943167700867455 33.5607979491357611
 27.9310021096177650 23.5943167700867455 36.3326565313870304
 31.0860458777824000 27.0199525807678391 12.7718585822512676
 31.0860458777824000 27.0199525807678391 15.5437171645025334
 31.0860458777824000 27.0199525807678391 18.3155757467538010
 31.0860458777824000 27.0199525807678391 21.0874343290050668
 31.0860458777824000 27.0199525807678391 23.8592929112563326
 31.0860458777824000 27.0199525807678391 26.6311514935075984
 31.0860458777824000 27.0199525807678391 29.4030100757588642
 31.0860458777824000 27.0199525807678391 32.1748686580101335
 31.0860458777824000 27.0199525807678391 34.9467272402613958
 28.8030347599397629 28.6786572497895733 12.7718585822512676
 28.8030347599397629 28.6786572497895733 15.5437171645025334
 28.8030347599397629 28.6786572497895733 18.3155757467538010
 28.8030347599397629 28.6786572497895733 21.0874343290050668
 28.8030347599397629 28.6786572497895733 23.8592929112563326
 28.8030347599397629 28.6786572497895733 26.6311514935075984
 28.8030347599397629 28.6786572497895733 29.4030100757588642
 28.8030347599397629 28.6786572497895733 32.1748686580101335
 28.8030347599397629 28.6786572497895733 34.9467272402613958
 26.5200236420971223 30.3373619188113111 12.7718585822512676
 26.5200236420971223 30.3373619188113111 15.5437171645025334
 26.5200236420971223 30.3373619188113111 18.3155757467538010
 26.5200236420971223 30.3373619188113111 21.0874343290050668
 26.5200236420971223 30.3373619188113111 23.8592929112563326
 26.5200236420971223 30.3373619188113111 26.6311514935075984
 26.5200236420971223 30.3373619188113111 29.4030100757588642
 26.5200236420971223 30.3373619188113111 32.1748686580101335
 26.5200236420971223 30.3373619188113111 34.9467272402613958
 24.2370125242544816 28.6786572497895733 12.7718585822512676
 24.2370125242544816 28.6786572497895733 15.5437171645025334
 24.2370125242544816 28.6786572497895733 18.3155757467538010
 24.2370125242544816 28.6786572497895733 21.0874343290050668
 24.2370125242544816 28.6786572497895733 23.8592929112563326
 24.2370125242544816 28.6786572497895733 26.6311514935075984
 24.2370125242544816 28.6786572497895733 29.4030100757588642
 24.2370125242544816 28.6786572497895733 32.1748686580101335
 24.2370125242544816 28.6786572497895733 34.9467272402613958
 21.9540014064118445 27.0199525807678391 12.7718585822512676
 21.9540014064118445 27.0199525807678391 15.5437171645025334
 21.9540014064118445 27.0199525807678391 18.3155757467538010
 21.9540014064118445 27.0199525807678391 21.0874343290050668
 21.9540014064118445 27.0199525807678391 23.8592929112563326
 21.9540014064118445 27.0199525807678391 26.6311514935075984
 21.9540014064118445 27.0199525807678391 29.4030100757588642
 21.9540014064118445 27.0199525807678391 32.1748686580101335
 21.9540014064118445 27.0199525807678391 34.9467272402613958
 22.8260340567338389 24.3361120489925256 12.7718585822512676
 22.8260340567338389 24.3361120489925256 15.5437171645025334
 22.8260340567338389 24.3361120489925256 18.3155757467538010
 22.8260340567338389 24.3361120489925256 21.0874343290050668
 22.8260340567338389 24.3361120489925256 23.8592929112563326
 22.8260340567338389 24.3361120489925256 26.6311514935075984
 22.8260340567338389 24.3361120489925256 29.4030100757588642
 22.8260340567338389 24.3361120489925256 32.1748686580101335
 22.8260340567338389 24.3361120489925256 34.9467272402613958
 23.6980667070558368 21.6522715172172120 12.7718585822512676
 23.6980667070558368 21.6522715172172120 15.5437171645025334
 23.6980667070558368 21.6522715172172120 18.3155757467538010
 23.6980667070558368 21.6522715172172120 21.0874343290050668
 23.6980667070558368 21.6522715172172120 23.8592929112563326
 23.6980667070558368 21.6522715172172120 26.6311514935075984
 23.6980667070558368 21.6522715172172120 29.4030100757588642
 23.6980667070558368 21.6522715172172120 32.1748686580101335
 23.6980667070558368 21.6522715172172120 34.9467272402613958
 26.5200236420971223 21.6522715172172120 12.7718585822512676
 26.5200236420971223 21.6522715172172120 15.5437171645025334
 26.5200236420971223 21.6522715172172120 18.3155757467538010
 26.5200236420971223 21.6522715172172120 21.0874343290050668
 26.5200236420971223 21.6522715172172120 23.8592929112563326
 26.5200236420971223 21.6522715172172120 26.6311514935075984
 26.5200236420971223 21.6522715172172120 29.4030100757588642
 26.5200236420971223 21.6522715172172120 32.1748686580101335
 26.5200236420971223 21.6522715172172120 34.9467272402613958
 29.3419805771384077 21.6522715172172120 12.7718585822512676
 29.3419805771384077 21.6522715172172120 15.5437171645025334
 29.3419805771384077 21.6522715172172120 18.3155757467538010
 29.3419805771384077 21.6522715172172120 21.0874343290050668
 29.3419805771384077 21.6522715172172120 23.8592929112563326
 29.3419805771384077 21.6522715172172120 26.6311514935075984
 29.3419805771384077 21.6522715172172120 29.4030100757588642
 29.3419805771384077 21.6522715172172120 32.1748686580101335
 29.3419805771384077 21.6522715172172120 34.9467272402613958
 30.2140132274604056 24.3361120489925256 12.7718585822512676
 30.2140132274604056 24.3361120489925256 15.5437171645025334
 30.2140132274604056 24.3361120489925256 18.3155757467538010
 30.2140132274604056 24.3361120489925256 21.0874343290050668
 30.2140132274604056 24.3361120489925256 23.8592929112563326
 30.2140132274604056 24.3361120489925256 26.6311514935075984
 30.2140132274604056 24.3361120489925256 29.4030100757588642
 30.2140132274604056 24.3361120489925256 32.1748686580101335
 30.2140132274604056 24.3361120489925256 34.9467272402613958
 33.3690569956250442 27.7617478596736156 14.1577878733769005
 33.3690569956250442 27.7617478596736156 16.9296464556281663
 33.3690569956250442 27.7617478596736156 19.7015050378794321
 33.3690569956250442 27.7617478596736156 22.4733636201306979
 33.3690569956250442 27.7617478596736156 25.2452222023819672
 33.3690569956250442 27.7617478596736156 28.0170807846332295
 33.3690569956250442 27.7617478596736156 30.7889393668844988
 33.3690569956250442 27.7617478596736156 33.5607979491357611
 31.0860458777824000 29.4204525286953533 14.1577878733769005
 31.0860458777824000 29.4204525286953533 16.9296464556281663
 31.0860458777824000 29.4204525286953533 19.7015050378794321
 31.0860458777824000 29.4204525286953533 22.4733636201306979
 31.0860458777824000 29.4204525286953533 25.2452222023819672
 31.0860458777824000 29.4204525286953533 28.0170807846332295
 31.0860458777824000 29.4204525286953533 30.7889393668844988
 31.0860458777824000 29.4204525286953533 33.5607979491357611
 28.8030347599397629 31.0791571977170875 14.1577878733769005
 28.8030347599397629 31.0791571977170875 16.9296464556281663
 28.8030347599397629 31.0791571977170875 19.7015050378794321
 28.8030347599397629 31.0791571977170875 22.4733636201306979
 28.8030347599397629 31.0791571977170875 25.2452222023819672
 28.8030347599397629 31.0791571977170875 28.0170807846332295
 28.8030347599397629 31.0791571977170875 30.7889393668844988
 28.8030347599397629 31.0791571977170875 33.5607979491357611
 26.5200236420971223 32.7378618667388253 14.1577878733769005
 26.5200236420971223 32.7378618667388253 16.9296464556281663
 26.5200236420971223 32.7378618667388253 19.7015050378794321
 26.5200236420971223 32.7378618667388253 22.4733636201306979
 26.5200236420971223 32.7378618667388253 25.2452222023819672
 26.5200236420971223 32.7378618667388253 28.0170807846332295
 26.5200236420971223 32.7378618667388253 30.7889393668844988
 26.5200236420971223 32.7378618667388253 33.5607979491357611
 24.2370125242544816 31.0791571977170875 14.1577878733769005
 24.2370125242544816 31.0791571977170875 16.9296464556281663
 24.2370125242544816 31.0791571977170875 19.7015050378794321
 24.2370125242544816 31.0791571977170875 22.4733636201306979
 24.2370125242544816 31.0791571977170875 25.2452222023819672
 24.2370125242544816 31.0791571977170875 28.0170807846332295
 24.2370125242544816 31.0791571977170875 30.7889393668844988
 24.2370125242544816 31.0791571977170875 33.5607979491357611
 21.9540014064118445 29.4204525286953533 14.1577878733769005
 21.9540014064118445 29.4204525286953533 16.9296464556281663
 21.9540014064118445 29.4204525286953533 19.7015050378794321
 21.9540014064118445 29.4204525286953533 22.4733636201306979
 21.9540014064118445 29.4204525286953533 25.2452222023819672
 21.9540014064118445 29.4204525286953533 28.0170807846332295
 21.9540014064118445 29.4204525286953533 30.7889393668844988
 21.9540014064118445 29.4204525286953533 33.5607979491357611
 19.6709902885692038 27.7617478596736191 14.1577878733769005
 19.6709902885692038 27.7617478596736191 16.9296464556281663
 19.6709902885692038 27.7617478596736191 19.7015050378794321
 19.6709902885692038 27.7617478596736191 22.4733636201306979
 19.6709902885692038 27.7617478596736191 25.2452222023819672
 19.6709902885692038 27.7617478596736191 28.0170807846332295
 19.6709902885692038 27.7617478596736191 30.7889393668844988
 19.6709902885692038 27.7617478596736191 33.5607979491357611
 20.5430229388912018 25.0779073278983056 14.1577878733769005
 20.5430229388912018 25.0779073278983056 16.9296464556281663
 20.5430229388912018 25.0779073278983056 19.7015050378794321
 20.5430229388912018 25.0779073278983056 22.4733636201306979
 20.5430229388912018 25.0779073278983056 25.2452222023819672
 20.5430229388912018 25.0779073278983056 28.0170807846332295
 20.5430229388912018 25.0779073278983056 30.7889393668844988
 20.5430229388912018 25.0779073278983056 33.5607979491357611
 21.4150555892131962 22.3940667961229920 14.1577878733769005
 21.4150555892131962 22.3940667961229920 16.9296464556281663
 21.4150555892131962 22.3940667961229920 19.7015050378794321
 21.4150555892131962 22.3940667961229920 22.4733636201306979
 21.4150555892131962 22.3940667961229920 25.2452222023819672
 21.4150555892131962 22.3940667961229920 28.0170807846332295
 21.4150555892131962 22.3940667961229920 30.7889393668844988
 21.4150555892131962 22.3940667961229920 33.5607979491357611
 22.2870882395351941 19.7102262643476784 14.1577878733769005
 22.2870882395351941 19.7102262643476784 16.9296464556281663
 22.2870882395351941 19.7102262643476784 19.7015050378794321
 22.2870882395351941 19.7102262643476784 22.4733636201306979
 22.2870882395351941 19.7102262643476784 25.2452222023819672
 22.2870882395351941 19.7102262643476784 28.0170807846332295
 22.2870882395351941 19.7102262643476784 30.7889393668844988
 22.2870882395351941 19.7102262643476784 33.5607979491357611
 25.1090451745764796 19.7102262643476749 14.1577878733769005
 25.1090451745764796 19.7102262643476749 16.9296464556281663
 25.1090451745764796 19.7102262643476749 19.7015050378794321
 25.1090451745764796 19.7102262643476749 22.4733636201306979
 25.1090451745764796 19.7102262643476749 25.2452222023819672
 25.1090451745764796 19.7102262643476749 28.0170807846332295
 25.1090451745764796 19.7102262643476749 30.7889393668844988
 25.1090451745764796 19.7102262643476749 33.5607979491357611
 27.9310021096177650 19.7102262643476749 14.1577878733769005
 27.9310021096177650 19.7102262643476749 16.9296464556281663
 27.9310021096177650 19.7102262643476749 19.7015050378794321
 27.9310021096177650 19.7102262643476749 22.4733636201306979
 27.9310021096177650 19.7102262643476749 25.2452222023819672
 27.9310021096177650 19.7102262643476749 28.0170807846332295
 27.9310021096177650 19.7102262643476749 30.7889393668844988
 27.9310021096177650 19.7102262643476749 33.5607979491357611
 30.7529590446590504 19.7102262643476749 14.1577878733769005
 30.7529590446590504 19.7102262643476749 16.9296464556281663
 30.7529590446590504 19.7102262643476749 19.7015050378794321
 30.7529590446590504 19.7102262643476749 22.4733636201306979
 30.7529590446590504 19.7102262643476749 25.2452222023819672
 30.7529590446590504 19.7102262643476749 28.0170807846332295
 30.7529590446590504 19.7102262643476749 30.7889393668844988
 30.7529590446590504 19.7102262643476749 33.5607979491357611
 31.6249916949810448 22.3940667961229884 14.1577878733769005
 31.6249916949810448 22.3940667961229884 16.9296464556281663
 31.6249916949810448 22.3940667961229884 19.7015050378794321
 31.6249916949810448 22.3940667961229884 22.4733636201306979
 31.6249916949810448 22.3940667961229884 25.2452222023819672
 31.6249916949810448 22.3940667961229884 28.0170807846332295
 31.6249916949810448 22.3940667961229884 30.7889393668844988
 31.6249916949810448 22.3940667961229884 33.5607979491357611
 32.4970243453030463 25.0779073278983020 14.1577878733769005
 32.4970243453030463 25.0779073278983020 16.9296464556281663
 32.4970243453030463 25.0779073278983020 19.7015050378794321
 32.4970243453030463 25.0779073278983020 22.4733636201306979
 32.4970243453030463 25.0779073278983020 25.2452222023819672
 32.4970243453030463 25.0779073278983020 28.0170807846332295
 32.4970243453030463 25.0779073278983020 30.7889393668844988
 32.4970243453030463 25.0779073278983020 33.5607979491357611
 35.6520681134676778 28.5035431385793920 15.5437171645025334
 35.6520681134676778 28.5035431385793920 18.3155757467538010
 35.6520681134676778 28.5035431385793920 21.0874343290050668
 35.6520681134676778 28.5035431385793920 23.8592929112563326
 35.6520681134676778 28.5035431385793920 26.6311514935075984
 35.6520681134676778 28.5035431385793920 29.4030100757588642
 35.6520681134676778 28.5035431385793920 32.1748686580101335
 33.3690569956250442 30.1622478076011298 15.5437171645025334
 33.3690569956250442 30.1622478076011298 18.3155757467538010
 33.3690569956250442 30.1622478076011298 21.0874343290050668
 33.3690569956250442 30.1622478076011298 23.8592929112563326
 33.3690569956250442 30.1622478076011298 26.6311514935075984
 33.3690569956250442 30.1622478076011298 29.4030100757588642
 33.3690569956250442 30.1622478076011298 32.1748686580101335
 31.0860458777824000 31.8209524766228675 15.5437171645025334
 31.0860458777824000 31.8209524766228675 18.3155757467538010
 31.0860458777824000 31.8209524766228675 21.0874343290050668
 31.0860458777824000 31.8209524766228675 23.8592929112563326
 31.0860458777824000 31.8209524766228675 26.6311514935075984
 31.0860458777824000 31.8209524766228675 29.4030100757588642
 31.0860458777824000 31.8209524766228675 32.1748686580101335
 28.8030347599397629 33.4796571456446017 15.5437171645025334
 28.8030347599397629 33.4796571456446017 18.3155757467538010
 28.8030347599397629 33.4796571456446017 21.0874343290050668
 28.8030347599397629 33.4796571456446017 23.8592929112563326
 28.8030347599397629 33.4796571456446017 26.6311514935075984
 28.8030347599397629 33.4796571456446017 29.4030100757588642
 28.8030347599397629 33.4796571456446017 32.1748686580101335
 26.5200236420971223 35.1383618146663395 15.5437171645025334
 26.5200236420971223 35.1383618146663395 18.3155757467538010
 26.5200236420971223 35.1383618146663395 21.0874343290050668
 26.5200236420971223 35.1383618146663395 23.8592929112563326
 26.5200236420971223 35.1383618146663395 26.6311514935075984
 26.5200236420971223 35.1383618146663395 29.4030100757588642
 26.5200236420971223 35.1383618146663395 32.1748686580101335
 24.2370125242544816 33.4796571456446017 15.5437171645025334
 24.2370125242544816 33.4796571456446017 18.3155757467538010
 24.2370125242544816 33.4796571456446017 21.0874343290050668
 24.2370125242544816 33.4796571456446017 23.8592929112563326
 24.2370125242544816 33.4796571456446017 26.6311514935075984
 24.2370125242544816 33.4796571456446017 29.4030100757588642
 24.2370125242544816 33.4796571456446017 32.1748686580101335
 21.9540014064118445 31.8209524766228675 15.5437171645025334
 21.9540014064118445 31.8209524766228675 18.3155757467538010
 21.9540014064118445 31.8209524766228675 21.0874343290050668
 21.9540014064118445 31.8209524766228675 23.8592929112563326
 21.9540014064118445 31.8209524766228675 26.6311514935075984
 21.9540014064118445 31.8209524766228675 29.4030100757588642
 21.9540014064118445 31.8209524766228675 32.1748686580101335
 19.6709902885692038 30.1622478076011333 15.5437171645025334
 19.6709902885692038 30.1622478076011333 18.3155757467538010
 19.6709902885692038 30.1622478076011333 21.0874343290050668
 19.6709902885692038 30.1622478076011333 23.8592929112563326
 19.6709902885692038 30.1622478076011333 26.6311514935075984
 19.6709902885692038 30.1622478076011333 29.4030100757588642
 19.6709902885692038 30.1622478076011333 32.1748686580101335
 17.3879791707265667 28.5035431385793956 15.5437171645025334
 17.3879791707265667 28.5035431385793956 18.3155757467538010
 17.3879791707265667 28.5035431385793956 21.0874343290050668
 17.3879791707265667 28.5035431385793956 23.8592929112563326
 17.3879791707265667 28.5035431385793956 26.6311514935075984
 17.3879791707265667 28.5035431385793956 29.4030100757588642
 17.3879791707265667 28.5035431385793956 32.1748686580101335
 18.2600118210485611 25.8197026068040820 15.5437171645025334
 18.2600118210485611 25.8197026068040820 18.3155757467538010
 18.2600118210485611 25.8197026068040820 21.0874343290050668
 18.2600118210485611 25.8197026068040820 23.8592929112563326
 18.2600118210485611 25.8197026068040820 26.6311514935075984
 18.2600118210485611 25.8197026068040820 29.4030100757588642
 18.2600118210485611 25.8197026068040820 32.1748686580101335
 19.1320444713705555 23.1358620750287685 15.5437171645025334
 19.1320444713705555 23.1358620750287685 18.3155757467538010
 19.1320444713705555 23.1358620750287685 21.0874343290050668
 19.1320444713705555 23.1358620750287685 23.8592929112563326
 19.1320444713705555 23.1358620750287685 26.6311514935075984
 19.1320444713705555 23.1358620750287685 29.4030100757588642
 19.1320444713705555 23.1358620750287685 32.1748686580101335
 20.0040771216925535 20.4520215432534549 15.5437171645025334
 20.0040771216925535 20.4520215432534549 18.3155757467538010
 20.0040771216925535 20.4520215432534549 21.0874343290050668
 20.0040771216925535 20.4520215432534549 23.8592929112563326
 20.0040771216925535 20.4520215432534549 26.6311514935075984
 20.0040771216925535 20.4520215432534549 29.4030100757588642
 20.0040771216925535 20.4520215432534549 32.1748686580101335
 20.8761097720145514 17.7681810114781413 15.5437171645025334
 20.8761097720145514 17.7681810114781413 18.3155757467538010
 20.8761097720145514 17.7681810114781413 21.0874343290050668
 20.8761097720145514 17.7681810114781413 23.8592929112563326
 20.8761097720145514 17.7681810114781413 26.6311514935075984
 20.8761097720145514 17.7681810114781413 29.4030100757588642
 20.8761097720145514 17.7681810114781413 32.1748686580101335
 23.6980667070558368 17.7681810114781413 15.5437171645025334
 23.6980667070558368 17.7681810114781413 18.3155757467538010
 23.6980667070558368 17.7681810114781413 21.0874343290050668
 23.6980667070558368 17.7681810114781413 23.8592929112563326
 23.6980667070558368 17.7681810114781413 26.6311514935075984
 23.6980667070558368 17.7681810114781413 29.4030100757588642
 23.6980667070558368 17.7681810114781413 32.1748686580101335
 26.5200236420971223 17.7681810114781413 15.5437171645025334
 26.5200236420971223 17.7681810114781413 18.3155757467538010
 26.5200236420971223 17.7681810114781413 21.0874343290050668
 26.5200236420971223 17.7681810114781413 23.8592929112563326
 26.5200236420971223 17.7681810114781413 26.6311514935075984
 26.5200236420971223 17.7681810114781413 29.4030100757588642
 26.5200236420971223 17.7681810114781413 32.1748686580101335
 29.3419805771384077 17.7681810114781413 15.5437171645025334
 29.3419805771384077 17.7681810114781413 18.3155757467538010
 29.3419805771384077 17.7681810114781413 21.0874343290050668
 29.3419805771384077 17.7681810114781413 23.8592929112563326
 29.3419805771384077 17.7681810114781413 26.6311514935075984
 29.3419805771384077 17.7681810114781413 29.4030100757588642
 29.3419805771384077 17.7681810114781413 32.1748686580101335
 32.1639375121796931 17.7681810114781413 15.5437171645025334
 32.1639375121796931 17.7681810114781413 18.3155757467538010
 32.1639375121796931 17.7681810114781413 21.0874343290050668
 32.1639375121796931 17.7681810114781413 23.8592929112563326
 32.1639375121796931 17.7681810114781413 26.6311514935075984
 32.1639375121796931 17.7681810114781413 29.4030100757588642
 32.1639375121796931 17.7681810114781413 32.1748686580101335
 33.0359701625016839 20.4520215432534513 15.5437171645025334
 33.0359701625016839 20.4520215432534513 18.3155757467538010
 33.0359701625016839 20.4520215432534513 21.0874343290050668
 33.0359701625016839 20.4520215432534513 23.8592929112563326
 33.0359701625016839 20.4520215432534513 26.6311514935075984
 33.0359701625016839 20.4520215432534513 29.4030100757588642
 33.0359701625016839 20.4520215432534513 32.1748686580101335
 33.9080028128236819 23.1358620750287685 15.5437171645025334
 33.9080028128236819 23.1358620750287685 18.3155757467538010
 33.9080028128236819 23.1358620750287685 21.0874343290050668
 33.9080028128236819 23.1358620750287685 23.8592929112563326
 33.9080028128236819 23.1358620750287685 26.6311514935075984
 33.9080028128236819 23.1358620750287685 29.4030100757588642
 33.9080028128236819 23.1358620750287685 32.1748686580101335
 34.7800354631456798 25.8197026068040785 15.5437171645025334
 34.7800354631456798 25.8197026068040785 18.3155757467538010
 34.7800354631456798 25.8197026068040785 21.0874343290050668
 34.7800354631456798 25.8197026068040785 23.8592929112563326
 34.7800354631456798 25.8197026068040785 26.6311514935075984
 34.7800354631456798 25.8197026068040785 29.4030100757588642
 34.7800354631456798 25.8197026068040785 32.1748686580101335
 37.9350792313103184 29.2453384174851720 16.9296464556281663
 37.9350792313103184 29.2453384174851720 19.7015050378794356
 37.9350792313103184 29.2453384174851720 22.4733636201306979
 37.9350792313103184 29.2453384174851720 25.2452222023819672
 37.9350792313103184 29.2453384174851720 28.0170807846332330
 37.9350792313103184 29.2453384174851720 30.7889393668844988
 35.6520681134676778 30.9040430865069098 16.9296464556281663
 35.6520681134676778 30.9040430865069098 19.7015050378794356
 35.6520681134676778 30.9040430865069098 22.4733636201306979
 35.6520681134676778 30.9040430865069098 25.2452222023819672
 35.6520681134676778 30.9040430865069098 28.0170807846332330
 35.6520681134676778 30.9040430865069098 30.7889393668844988
 33.3690569956250442 32.5627477555286475 16.9296464556281663
 33.3690569956250442 32.5627477555286475 19.7015050378794356
 33.3690569956250442 32.5627477555286475 22.4733636201306979
 33.3690569956250442 32.5627477555286475 25.2452222023819672
 33.3690569956250442 32.5627477555286475 28.0170807846332330
 33.3690569956250442 32.5627477555286475 30.7889393668844988
 31.0860458777824000 34.2214524245503782 16.9296464556281663
 31.0860458777824000 34.2214524245503782 19.7015050378794356
 31.0860458777824000 34.2214524245503782 22.4733636201306979
 31.0860458777824000 34.2214524245503782 25.2452222023819672
 31.0860458777824000 34.2214524245503782 28.0170807846332330
 31.0860458777824000 34.2214524245503782 30.7889393668844988
 28.8030347599397629 35.8801570935721159 16.9296464556281663
 28.8030347599397629 35.8801570935721159 19.7015050378794356
 28.8030347599397629 35.8801570935721159 22.4733636201306979
 28.8030347599397629 35.8801570935721159 25.2452222023819672
 28.8030347599397629 35.8801570935721159 28.0170807846332330
 28.8030347599397629 35.8801570935721159 30.7889393668844988
 26.5200236420971223 37.5388617625938537 16.9296464556281663
 26.5200236420971223 37.5388617625938537 19.7015050378794356
 26.5200236420971223 37.5388617625938537 22.4733636201306979
 26.5200236420971223 37.5388617625938537 25.2452222023819672
 26.5200236420971223 37.5388617625938537 28.0170807846332330
 26.5200236420971223 37.5388617625938537 30.7889393668844988
 24.2370125242544816 35.8801570935721159 16.9296464556281663
 24.2370125242544816 35.8801570935721159 19.7015050378794356
 24.2370125242544816 35.8801570935721159 22.4733636201306979
 24.2370125242544816 35.8801570935721159 25.2452222023819672
 24.2370125242544816 35.8801570935721159 28.0170807846332330
 24.2370125242544816 35.8801570935721159 30.7889393668844988
 21.9540014064118445 34.2214524245503782 16.9296464556281663
 21.9540014064118445 34.2214524245503782 19.7015050378794356
 21.9540014064118445 34.2214524245503782 22.4733636201306979
 21.9540014064118445 34.2214524245503782 25.2452222023819672
 21.9540014064118445 34.2214524245503782 28.0170807846332330
 21.9540014064118445 34.2214524245503782 30.7889393668844988
 19.6709902885692038 32.5627477555286475 16.9296464556281663
 19.6709902885692038 32.5627477555286475 19.7015050378794356
 19.6709902885692038 32.5627477555286475 22.4733636201306979
 19.6709902885692038 32.5627477555286475 25.2452222023819672
 19.6709902885692038 32.5627477555286475 28.0170807846332330
 19.6709902885692038 32.5627477555286475 30.7889393668844988
 17.3879791707265667 30.9040430865069098 16.9296464556281663
 17.3879791707265667 30.9040430865069098 19.7015050378794356
 17.3879791707265667 30.9040430865069098 22.4733636201306979
 17.3879791707265667 30.9040430865069098 25.2452222023819672
 17.3879791707265667 30.9040430865069098 28.0170807846332330
 17.3879791707265667 30.9040430865069098 30.7889393668844988
 15.1049680528839261 29.2453384174851756 16.9296464556281663
 15.1049680528839261 29.2453384174851756 19.7015050378794356
 15.1049680528839261 29.2453384174851756 22.4733636201306979
 15.1049680528839261 29.2453384174851756 25.2452222023819672
 15.1049680528839261 29.2453384174851756 28.0170807846332330
 15.1049680528839261 29.2453384174851756 30.7889393668844988
 15.9770007032059222 26.5614978857098620 16.9296464556281663
 15.9770007032059222 26.5614978857098620 19.7015050378794356
 15.9770007032059222 26.5614978857098620 22.4733636201306979
 15.9770007032059222 26.5614978857098620 25.2452222023819672
 15.9770007032059222 26.5614978857098620 28.0170807846332330
 15.9770007032059222 26.5614978857098620 30.7889393668844988
 16.8490333535279184 23.8776573539345485 16.9296464556281663
 16.8490333535279184 23.8776573539345485 19.7015050378794356
 16.8490333535279184 23.8776573539345485 22.4733636201306979
 16.8490333535279184 23.8776573539345485 25.2452222023819672