Pt 
 1.0000000000000000
    46.7299597478649673    0.0000000000000000    0.0000000000000000
     0.0000000000000000   45.4217023985141424    0.0000000000000000
     0.0000000000000000    0.0000000000000000   47.7185858225126651
 Pt 
 646
Cartesian
 23.3649798739324837 23.5943167700867491 10.0000000000000018
 23.3649798739324837 23.5943167700867491 12.7718585822512676
 23.3649798739324837 23.5943167700867491 15.5437171645025352
 23.3649798739324837 23.5943167700867491 18.3155757467538010
 23.3649798739324837 23.5943167700867491 21.0874343290050668
 23.3649798739324837 23.5943167700867491 23.8592929112563326
 23.3649798739324837 23.5943167700867491 26.6311514935076019
 23.3649798739324837 23.5943167700867491 29.4030100757588642
 23.3649798739324837 23.5943167700867491 32.1748686580101335
 23.3649798739324837 23.5943167700867491 34.9467272402613958
 23.3649798739324837 23.5943167700867491 37.7185858225126651
 25.6479909917751243 24.3361120489925256 11.3859292911256347
 25.6479909917751243 24.3361120489925256 14.1577878733769005
 25.6479909917751243 24.3361120489925256 16.9296464556281663
 25.6479909917751243 24.3361120489925256 19.7015050378794356
 25.6479909917751243 24.3361120489925256 22.4733636201306979
 25.6479909917751243 24.3361120489925256 25.2452222023819672
 25.6479909917751243 24.3361120489925256 28.0170807846332330
 25.6479909917751243 24.3361120489925256 30.7889393668844988
 25.6479909917751243 24.3361120489925256 33.5607979491357611
 25.6479909917751243 24.3361120489925256 36.3326565313870304
 23.3649798739324837 25.9948167180142633 11.3859292911256347
 23.3649798739324837 25.9948167180142633 14.1577878733769005
 23.3649798739324837 25.9948167180142633 16.9296464556281663
 23.3649798739324837 25.9948167180142633 19.7015050378794356
 23.3649798739324837 25.9948167180142633 22.4733636201306979
 23.3649798739324837 25.9948167180142633 25.2452222023819672
 23.3649798739324837 25.9948167180142633 28.0170807846332330
 23.3649798739324837 25.9948167180142633 30.7889393668844988
 23.3649798739324837 25.9948167180142633 33.5607979491357611
 23.3649798739324837 25.9948167180142633 36.3326565313870304
 21.0819687560898430 24.3361120489925291 11.3859292911256347
 21.0819687560898430 24.3361120489925291 14.1577878733769005
 21.0819687560898430 24.3361120489925291 16.9296464556281663
 21.0819687560898430 24.3361120489925291 19.7015050378794356
 21.0819687560898430 24.3361120489925291 22.4733636201306979
 21.0819687560898430 24.3361120489925291 25.2452222023819672
 21.0819687560898430 24.3361120489925291 28.0170807846332330
 21.0819687560898430 24.3361120489925291 30.7889393668844988
 21.0819687560898430 24.3361120489925291 33.5607979491357611
 21.0819687560898430 24.3361120489925291 36.3326565313870304
 21.9540014064118409 21.6522715172172155 11.3859292911256347
 21.9540014064118409 21.6522715172172155 14.1577878733769005
 21.9540014064118409 21.6522715172172155 16.9296464556281663
 21.9540014064118409 21.6522715172172155 19.7015050378794356
 21.9540014064118409 21.6522715172172155 22.4733636201306979
 21.9540014064118409 21.6522715172172155 25.2452222023819672
 21.9540014064118409 21.6522715172172155 28.0170807846332330
 21.9540014064118409 21.6522715172172155 30.7889393668844988
 21.9540014064118409 21.6522715172172155 33.5607979491357611
 21.9540014064118409 21.6522715172172155 36.3326565313870304
 24.7759583414531264 21.6522715172172120 11.3859292911256347
 24.7759583414531264 21.6522715172172120 14.1577878733769005
 24.7759583414531264 21.6522715172172120 16.9296464556281663
 24.7759583414531264 21.6522715172172120 19.7015050378794356
 24.7759583414531264 21.6522715172172120 22.4733636201306979
 24.7759583414531264 21.6522715172172120 25.2452222023819672
 24.7759583414531264 21.6522715172172120 28.0170807846332330
 24.7759583414531264 21.6522715172172120 30.7889393668844988
 24.7759583414531264 21.6522715172172120 33.5607979491357611
 24.7759583414531264 21.6522715172172120 36.3326565313870304
 27.9310021096177614 25.0779073278983056 12.7718585822512676
 27.9310021096177614 25.0779073278983056 15.5437171645025334
 27.9310021096177614 25.0779073278983056 18.3155757467538010
 27.9310021096177614 25.0779073278983056 21.0874343290050668
 27.9310021096177614 25.0779073278983056 23.8592929112563326
 27.9310021096177614 25.0779073278983056 26.6311514935075984
 27.9310021096177614 25.0779073278983056 29.4030100757588642
 27.9310021096177614 25.0779073278983056 32.1748686580101335
 27.9310021096177614 25.0779073278983056 34.9467272402613958
 25.6479909917751243 26.7366119969200398 12.7718585822512676
 25.6479909917751243 26.7366119969200398 15.5437171645025334
 25.6479909917751243 26.7366119969200398 18.3155757467538010
 25.6479909917751243 26.7366119969200398 21.0874343290050668
 25.6479909917751243 26.7366119969200398 23.8592929112563326
 25.6479909917751243 26.7366119969200398 26.6311514935075984
 25.6479909917751243 26.7366119969200398 29.4030100757588642
 25.6479909917751243 26.7366119969200398 32.1748686580101335
 25.6479909917751243 26.7366119969200398 34.9467272402613958
 23.3649798739324837 28.3953166659417775 12.7718585822512676
 23.3649798739324837 28.3953166659417775 15.5437171645025334
 23.3649798739324837 28.3953166659417775 18.3155757467538010
 23.3649798739324837 28.3953166659417775 21.0874343290050668
 23.3649798739324837 28.3953166659417775 23.8592929112563326
 23.3649798739324837 28.3953166659417775 26.6311514935075984
 23.3649798739324837 28.3953166659417775 29.4030100757588642
 23.3649798739324837 28.3953166659417775 32.1748686580101335
 23.3649798739324837 28.3953166659417775 34.9467272402613958
 21.0819687560898430 26.7366119969200398 12.7718585822512676
 21.0819687560898430 26.7366119969200398 15.5437171645025334
 21.0819687560898430 26.7366119969200398 18.3155757467538010
 21.0819687560898430 26.7366119969200398 21.0874343290050668
 21.0819687560898430 26.7366119969200398 23.8592929112563326
 21.0819687560898430 26.7366119969200398 26.6311514935075984
 21.0819687560898430 26.7366119969200398 29.4030100757588642
 21.0819687560898430 26.7366119969200398 32.1748686580101335
 21.0819687560898430 26.7366119969200398 34.9467272402613958
 18.7989576382472059 25.0779073278983056 12.7718585822512676
 18.7989576382472059 25.0779073278983056 15.5437171645025334
 18.7989576382472059 25.0779073278983056 18.3155757467538010
 18.7989576382472059 25.0779073278983056 21.0874343290050668
 18.7989576382472059 25.0779073278983056 23.8592929112563326
 18.7989576382472059 25.0779073278983056 26.6311514935075984
 18.7989576382472059 25.0779073278983056 29.4030100757588642
 18.7989576382472059 25.0779073278983056 32.1748686580101335
 18.7989576382472059 25.0779073278983056 34.9467272402613958
 19.6709902885692003 22.3940667961229920 12.7718585822512676
 19.6709902885692003 22.3940667961229920 15.5437171645025334
 19.6709902885692003 22.3940667961229920 18.3155757467538010
 19.6709902885692003 22.3940667961229920 21.0874343290050668
 19.6709902885692003 22.3940667961229920 23.8592929112563326
 19.6709902885692003 22.3940667961229920 26.6311514935075984
 19.6709902885692003 22.3940667961229920 29.4030100757588642
 19.6709902885692003 22.3940667961229920 32.1748686580101335
 19.6709902885692003 22.3940667961229920 34.9467272402613958
 20.5430229388911982 19.7102262643476784 12.7718585822512676
 20.5430229388911982 19.7102262643476784 15.5437171645025334
 20.5430229388911982 19.7102262643476784 18.3155757467538010
 20.5430229388911982 19.7102262643476784 21.0874343290050668
 20.5430229388911982 19.7102262643476784 23.8592929112563326
 20.5430229388911982 19.7102262643476784 26.6311514935075984
 20.5430229388911982 19.7102262643476784 29.4030100757588642
 20.5430229388911982 19.7102262643476784 32.1748686580101335
 20.5430229388911982 19.7102262643476784 34.9467272402613958
 23.3649798739324837 19.7102262643476784 12.7718585822512676
 23.3649798739324837 19.7102262643476784 15.5437171645025334
 23.3649798739324837 19.7102262643476784 18.3155757467538010
 23.3649798739324837 19.7102262643476784 21.0874343290050668
 23.3649798739324837 19.7102262643476784 23.8592929112563326
 23.3649798739324837 19.7102262643476784 26.6311514935075984
 23.3649798739324837 19.7102262643476784 29.4030100757588642
 23.3649798739324837 19.7102262643476784 32.1748686580101335
 23.3649798739324837 19.7102262643476784 34.9467272402613958
 26.1869368089737691 19.7102262643476784 12.7718585822512676
 26.1869368089737691 19.7102262643476784 15.5437171645025334
 26.1869368089737691 19.7102262643476784 18.3155757467538010
 26.1869368089737691 19.7102262643476784 21.0874343290050668
 26.1869368089737691 19.7102262643476784 23.8592929112563326
 26.1869368089737691 19.7102262643476784 26.6311514935075984
 26.1869368089737691 19.7102262643476784 29.4030100757588642
 26.1869368089737691 19.7102262643476784 32.1748686580101335
 26.1869368089737691 19.7102262643476784 34.9467272402613958
 27.0589694592957670 22.3940667961229920 12.7718585822512676
 27.0589694592957670 22.3940667961229920 15.5437171645025334
 27.0589694592957670 22.3940667961229920 18.3155757467538010
 27.0589694592957670 22.3940667961229920 21.0874343290050668
 27.0589694592957670 22.3940667961229920 23.8592929112563326
 27.0589694592957670 22.3940667961229920 26.6311514935075984
 27.0589694592957670 22.3940667961229920 29.4030100757588642
 27.0589694592957670 22.3940667961229920 32.1748686580101335
 27.0589694592957670 22.3940667961229920 34.9467272402613958
 30.2140132274604021 25.8197026068040820 14.1577878733769005
 30.2140132274604021 25.8197026068040820 16.9296464556281663
 30.2140132274604021 25.8197026068040820 19.7015050378794321
 30.2140132274604021 25.8197026068040820 22.4733636201306979
 30.2140132274604021 25.8197026068040820 25.2452222023819672
 30.2140132274604021 25.8197026068040820 28.0170807846332295
 30.2140132274604021 25.8197026068040820 30.7889393668844988
 30.2140132274604021 25.8197026068040820 33.5607979491357611
 27.9310021096177614 27.4784072758258198 14.1577878733769005
 27.9310021096177614 27.4784072758258198 16.9296464556281663
 27.9310021096177614 27.4784072758258198 19.7015050378794321
 27.9310021096177614 27.4784072758258198 22.4733636201306979
 27.9310021096177614 27.4784072758258198 25.2452222023819672
 27.9310021096177614 27.4784072758258198 28.0170807846332295
 27.9310021096177614 27.4784072758258198 30.7889393668844988
 27.9310021096177614 27.4784072758258198 33.5607979491357611
 25.6479909917751243 29.1371119448475540 14.1577878733769005
 25.6479909917751243 29.1371119448475540 16.9296464556281663
 25.6479909917751243 29.1371119448475540 19.7015050378794321
 25.6479909917751243 29.1371119448475540 22.4733636201306979
 25.6479909917751243 29.1371119448475540 25.2452222023819672
 25.6479909917751243 29.1371119448475540 28.0170807846332295
 25.6479909917751243 29.1371119448475540 30.7889393668844988
 25.6479909917751243 29.1371119448475540 33.5607979491357611
 23.3649798739324837 30.7958166138692917 14.1577878733769005
 23.3649798739324837 30.7958166138692917 16.9296464556281663
 23.3649798739324837 30.7958166138692917 19.7015050378794321
 23.3649798739324837 30.7958166138692917 22.4733636201306979
 23.3649798739324837 30.7958166138692917 25.2452222023819672
 23.3649798739324837 30.7958166138692917 28.0170807846332295
 23.3649798739324837 30.7958166138692917 30.7889393668844988
 23.3649798739324837 30.7958166138692917 33.5607979491357611
 21.0819687560898430 29.1371119448475540 14.1577878733769005
 21.0819687560898430 29.1371119448475540 16.9296464556281663
 21.0819687560898430 29.1371119448475540 19.7015050378794321
 21.0819687560898430 29.1371119448475540 22.4733636201306979
 21.0819687560898430 29.1371119448475540 25.2452222023819672
 21.0819687560898430 29.1371119448475540 28.0170807846332295
 21.0819687560898430 29.1371119448475540 30.7889393668844988
 21.0819687560898430 29.1371119448475540 33.5607979491357611
 18.7989576382472059 27.4784072758258198 14.1577878733769005
 18.7989576382472059 27.4784072758258198 16.9296464556281663
 18.7989576382472059 27.4784072758258198 19.7015050378794321
 18.7989576382472059 27.4784072758258198 22.4733636201306979
 18.7989576382472059 27.4784072758258198 25.2452222023819672
 18.7989576382472059 27.4784072758258198 28.0170807846332295
 18.7989576382472059 27.4784072758258198 30.7889393668844988
 18.7989576382472059 27.4784072758258198 33.5607979491357611
 16.5159465204045652 25.8197026068040856 14.1577878733769005
 16.5159465204045652 25.8197026068040856 16.9296464556281663
 16.5159465204045652 25.8197026068040856 19.7015050378794321
 16.5159465204045652 25.8197026068040856 22.4733636201306979
 16.5159465204045652 25.8197026068040856 25.2452222023819672
 16.5159465204045652 25.8197026068040856 28.0170807846332295
 16.5159465204045652 25.8197026068040856 30.7889393668844988
 16.5159465204045652 25.8197026068040856 33.5607979491357611
 17.3879791707265632 23.1358620750287720 14.1577878733769005
 17.3879791707265632 23.1358620750287720 16.9296464556281663
 17.3879791707265632 23.1358620750287720 19.7015050378794321
 17.3879791707265632 23.1358620750287720 22.4733636201306979
 17.3879791707265632 23.1358620750287720 25.2452222023819672
 17.3879791707265632 23.1358620750287720 28.0170807846332295
 17.3879791707265632 23.1358620750287720 30.7889393668844988
 17.3879791707265632 23.1358620750287720 33.5607979491357611
 18.2600118210485576 20.4520215432534584 14.1577878733769005
 18.2600118210485576 20.4520215432534584 16.9296464556281663
 18.2600118210485576 20.4520215432534584 19.7015050378794321
 18.2600118210485576 20.4520215432534584 22.4733636201306979
 18.2600118210485576 20.4520215432534584 25.2452222023819672
 18.2600118210485576 20.4520215432534584 28.0170807846332295
 18.2600118210485576 20.4520215432534584 30.7889393668844988
 18.2600118210485576 20.4520215432534584 33.5607979491357611
 19.1320444713705555 17.7681810114781449 14.1577878733769005
 19.1320444713705555 17.7681810114781449 16.9296464556281663
 19.1320444713705555 17.7681810114781449 19.7015050378794321
 19.1320444713705555 17.7681810114781449 22.4733636201306979
 19.1320444713705555 17.7681810114781449 25.2452222023819672
 19.1320444713705555 17.7681810114781449 28.0170807846332295
 19.1320444713705555 17.7681810114781449 30.7889393668844988
 19.1320444713705555 17.7681810114781449 33.5607979491357611
 21.9540014064118409 17.7681810114781413 14.1577878733769005
 21.9540014064118409 17.7681810114781413 16.9296464556281663
 21.9540014064118409 17.7681810114781413 19.7015050378794321
 21.9540014064118409 17.7681810114781413 22.4733636201306979
 21.9540014064118409 17.7681810114781413 25.2452222023819672
 21.9540014064118409 17.7681810114781413 28.0170807846332295
 21.9540014064118409 17.7681810114781413 30.7889393668844988
 21.9540014064118409 17.7681810114781413 33.5607979491357611
 24.7759583414531264 17.7681810114781413 14.1577878733769005
 24.7759583414531264 17.7681810114781413 16.9296464556281663
 24.7759583414531264 17.7681810114781413 19.7015050378794321
 24.7759583414531264 17.7681810114781413 22.4733636201306979
 24.7759583414531264 17.7681810114781413 25.2452222023819672
 24.7759583414531264 17.7681810114781413 28.0170807846332295
 24.7759583414531264 17.7681810114781413 30.7889393668844988
 24.7759583414531264 17.7681810114781413 33.5607979491357611
 27.5979152764944118 17.7681810114781413 14.1577878733769005
 27.5979152764944118 17.7681810114781413 16.9296464556281663
 27.5979152764944118 17.7681810114781413 19.7015050378794321
 27.5979152764944118 17.7681810114781413 22.4733636201306979
 27.5979152764944118 17.7681810114781413 25.2452222023819672
 27.5979152764944118 17.7681810114781413 28.0170807846332295
 27.5979152764944118 17.7681810114781413 30.7889393668844988
 27.5979152764944118 17.7681810114781413 33.5607979491357611
 28.4699479268164062 20.4520215432534549 14.1577878733769005
 28.4699479268164062 20.4520215432534549 16.9296464556281663
 28.4699479268164062 20.4520215432534549 19.7015050378794321
 28.4699479268164062 20.4520215432534549 22.4733636201306979
 28.4699479268164062 20.4520215432534549 25.2452222023819672
 28.4699479268164062 20.4520215432534549 28.0170807846332295
 28.4699479268164062 20.4520215432534549 30.7889393668844988
 28.4699479268164062 20.4520215432534549 33.5607979491357611
 29.3419805771384041 23.1358620750287685 14.1577878733769005
 29.3419805771384041 23.1358620750287685 16.9296464556281663
 29.3419805771384041 23.1358620750287685 19.7015050378794321
 29.3419805771384041 23.1358620750287685 22.4733636201306979
 29.3419805771384041 23.1358620750287685 25.2452222023819672
 29.3419805771384041 23.1358620750287685 28.0170807846332295
 29.3419805771384041 23.1358620750287685 30.7889393668844988
 29.3419805771384041 23.1358620750287685 33.5607979491357611
 32.4970243453030392 26.5614978857098585 15.5437171645025334
 32.4970243453030392 26.5614978857098585 18.3155757467538010
 32.4970243453030392 26.5614978857098585 21.0874343290050668
 32.4970243453030392 26.5614978857098585 23.8592929112563326
 32.4970243453030392 26.5614978857098585 26.6311514935075984
 32.4970243453030392 26.5614978857098585 29.4030100757588642
 32.4970243453030392 26.5614978857098585 32.1748686580101335
 30.2140132274604021 28.2202025547315962 15.5437171645025334
 30.2140132274604021 28.2202025547315962 18.3155757467538010
 30.2140132274604021 28.2202025547315962 21.0874343290050668
 30.2140132274604021 28.2202025547315962 23.8592929112563326
 30.2140132274604021 28.2202025547315962 26.6311514935075984
 30.2140132274604021 28.2202025547315962 29.4030100757588642
 30.2140132274604021 28.2202025547315962 32.1748686580101335
 27.9310021096177614 29.8789072237533340 15.5437171645025334
 27.9310021096177614 29.8789072237533340 18.3155757467538010
 27.9310021096177614 29.8789072237533340 21.0874343290050668
 27.9310021096177614 29.8789072237533340 23.8592929112563326
 27.9310021096177614 29.8789072237533340 26.6311514935075984
 27.9310021096177614 29.8789072237533340 29.4030100757588642
 27.9310021096177614 29.8789072237533340 32.1748686580101335
 25.6479909917751243 31.5376118927750682 15.5437171645025334
 25.6479909917751243 31.5376118927750682 18.3155757467538010
 25.6479909917751243 31.5376118927750682 21.0874343290050668
 25.6479909917751243 31.5376118927750682 23.8592929112563326
 25.6479909917751243 31.5376118927750682 26.6311514935075984
 25.6479909917751243 31.5376118927750682 29.4030100757588642
 25.6479909917751243 31.5376118927750682 32.1748686580101335
 23.3649798739324837 33.1963165617968059 15.5437171645025334
 23.3649798739324837 33.1963165617968059 18.3155757467538010
 23.3649798739324837 33.1963165617968059 21.0874343290050668
 23.3649798739324837 33.1963165617968059 23.8592929112563326
 23.3649798739324837 33.1963165617968059 26.6311514935075984
 23.3649798739324837 33.1963165617968059 29.4030100757588642
 23.3649798739324837 33.1963165617968059 32.1748686580101335
 21.0819687560898430 31.5376118927750682 15.5437171645025334
 21.0819687560898430 31.5376118927750682 18.3155757467538010
 21.0819687560898430 31.5376118927750682 21.0874343290050668
 21.0819687560898430 31.5376118927750682 23.8592929112563326
 21.0819687560898430 31.5376118927750682 26.6311514935075984
 21.0819687560898430 31.5376118927750682 29.4030100757588642
 21.0819687560898430 31.5376118927750682 32.1748686580101335
 18.7989576382472059 29.8789072237533340 15.5437171645025334
 18.7989576382472059 29.8789072237533340 18.3155757467538010
 18.7989576382472059 29.8789072237533340 21.0874343290050668
 18.7989576382472059 29.8789072237533340 23.8592929112563326
 18.7989576382472059 29.8789072237533340 26.6311514935075984
 18.7989576382472059 29.8789072237533340 29.4030100757588642
 18.7989576382472059 29.8789072237533340 32.1748686580101335
 16.5159465204045652 28.2202025547315998 15.5437171645025334
 16.5159465204045652 28.2202025547315998 18.3155757467538010
 16.5159465204045652 28.2202025547315998 21.0874343290050668
 16.5159465204045652 28.2202025547315998 23.8592929112563326
 16.5159465204045652 28.2202025547315998 26.6311514935075984
 16.5159465204045652 28.2202025547315998 29.4030100757588642
 16.5159465204045652 28.2202025547315998 32.1748686580101335
 14.2329354025619264 26.5614978857098620 15.5437171645025334
 14.2329354025619264 26.5614978857098620 18.3155757467538010
 14.2329354025619264 26.5614978857098620 21.0874343290050668
 14.2329354025619264 26.5614978857098620 23.8592929112563326
 14.2329354025619264 26.5614978857098620 26.6311514935075984
 14.2329354025619264 26.5614978857098620 29.4030100757588642
 14.2329354025619264 26.5614978857098620 32.1748686580101335
 15.1049680528839225 23.8776573539345485 15.5437171645025334
 15.1049680528839225 23.8776573539345485 18.3155757467538010
 15.1049680528839225 23.8776573539345485 21.0874343290050668
 15.1049680528839225 23.8776573539345485 23.8592929112563326
 15.1049680528839225 23.8776573539345485 26.6311514935075984
 15.1049680528839225 23.8776573539345485 29.4030100757588642
 15.1049680528839225 23.8776573539345485 32.1748686580101335
 15.9770007032059187 21.1938168221592349 15.5437171645025334
 15.9770007032059187 21.1938168221592349 18.3155757467538010
 15.9770007032059187 21.1938168221592349 21.0874343290050668
 15.9770007032059187 21.1938168221592349 23.8592929112563326
 15.9770007032059187 21.1938168221592349 26.6311514935075984
 15.9770007032059187 21.1938168221592349 29.4030100757588642
 15.9770007032059187 21.1938168221592349 32.1748686580101335
 16.8490333535279149 18.5099762903839213 15.5437171645025334
 16.8490333535279149 18.5099762903839213 18.3155757467538010
 16.8490333535279149 18.5099762903839213 21.0874343290050668
 16.8490333535279149 18.5099762903839213 23.8592929112563326
 16.8490333535279149 18.5099762903839213 26.6311514935075984
 16.8490333535279149 18.5099762903839213 29.4030100757588642
 16.8490333535279149 18.5099762903839213 32.1748686580101335
 17.7210660038499128 15.8261357586086078 15.5437171645025334
 17.7210660038499128 15.8261357586086078 18.3155757467538010
 17.7210660038499128 15.8261357586086078 21.0874343290050668
 17.7210660038499128 15.8261357586086078 23.8592929112563326
 17.7210660038499128 15.8261357586086078 26.6311514935075984
 17.7210660038499128 15.8261357586086078 29.4030100757588642
 17.7210660038499128 15.8261357586086078 32.1748686580101335
 20.5430229388911982 15.8261357586086078 15.5437171645025334
 20.5430229388911982 15.8261357586086078 18.3155757467538010
 20.5430229388911982 15.8261357586086078 21.0874343290050668
 20.5430229388911982 15.8261357586086078 23.8592929112563326
 20.5430229388911982 15.8261357586086078 26.6311514935075984
 20.5430229388911982 15.8261357586086078 29.4030100757588642
 20.5430229388911982 15.8261357586086078 32.1748686580101335
 23.3649798739324837 15.8261357586086078 15.5437171645025334
 23.3649798739324837 15.8261357586086078 18.3155757467538010
 23.3649798739324837 15.8261357586086078 21.0874343290050668
 23.3649798739324837 15.8261357586086078 23.8592929112563326
 23.3649798739324837 15.8261357586086078 26.6311514935075984
 23.3649798739324837 15.8261357586086078 29.4030100757588642
 23.3649798739324837 15.8261357586086078 32.1748686580101335
 26.1869368089737691 15.8261357586086060 15.5437171645025334
 26.1869368089737691 15.8261357586086060 18.3155757467538010
 26.1869368089737691 15.8261357586086060 21.0874343290050668
 26.1869368089737691 15.8261357586086060 23.8592929112563326
 26.1869368089737691 15.8261357586086060 26.6311514935075984
 26.1869368089737691 15.8261357586086060 29.4030100757588642
 26.1869368089737691 15.8261357586086060 32.1748686580101335
 29.0088937440150509 15.8261357586086060 15.5437171645025334
 29.0088937440150509 15.8261357586086060 18.3155757467538010
 29.0088937440150509 15.8261357586086060 21.0874343290050668
 29.0088937440150509 15.8261357586086060 23.8592929112563326
 29.0088937440150509 15.8261357586086060 26.6311514935075984
 29.0088937440150509 15.8261357586086060 29.4030100757588642
 29.0088937440150509 15.8261357586086060 32.1748686580101335
 29.8809263943370489 18.5099762903839178 15.5437171645025334
 29.8809263943370489 18.5099762903839178 18.3155757467538010
 29.8809263943370489 18.5099762903839178 21.0874343290050668
 29.8809263943370489 18.5099762903839178 23.8592929112563326
 29.8809263943370489 18.5099762903839178 26.6311514935075984
 29.8809263943370489 18.5099762903839178 29.4030100757588642
 29.8809263943370489 18.5099762903839178 32.1748686580101335
 30.7529590446590468 21.1938168221592349 15.5437171645025334
 30.7529590446590468 21.1938168221592349 18.3155757467538010
 30.7529590446590468 21.1938168221592349 21.0874343290050668
 30.7529590446590468 21.1938168221592349 23.8592929112563326
 30.7529590446590468 21.1938168221592349 26.6311514935075984
 30.7529590446590468 21.1938168221592349 29.4030100757588642
 30.7529590446590468 21.1938168221592349 32.1748686580101335
 31.6249916949810448 23.8776573539345449 15.5437171645025334
 31.6249916949810448 23.8776573539345449 18.3155757467538010
 31.6249916949810448 23.8776573539345449 21.0874343290050668
 31.6249916949810448 23.8776573539345449 23.8592929112563326
 31.6249916949810448 23.8776573539345449 26.6311514935075984
 31.6249916949810448 23.8776573539345449 29.4030100757588642
 31.6249916949810448 23.8776573539345449 32.1748686580101335
 32.4970243453030392 28.9619978336373762 16.9296464556281663
 32.4970243453030392 28.9619978336373762 19.7015050378794356
 32.4970243453030392 28.9619978336373762 22.4733636201306979
 32.4970243453030392 28.9619978336373762 25.2452222023819672
 32.4970243453030392 28.9619978336373762 28.0170807846332330
 32.4970243453030392 28.9619978336373762 30.7889393668844988
 30.2140132274604021 30.6207025026591104 16.9296464556281663
 30.2140132274604021 30.6207025026591104 19.7015050378794356
 30.2140132274604021 30.6207025026591104 22.4733636201306979
 30.2140132274604021 30.6207025026591104 25.2452222023819672
 30.2140132274604021 30.6207025026591104 28.0170807846332330
 30.2140132274604021 30.6207025026591104 30.7889393668844988
 27.9310021096177614 32.2794071716808446 16.9296464556281663
 27.9310021096177614 32.2794071716808446 19.7015050378794356
 27.9310021096177614 32.2794071716808446 22.4733636201306979
 27.9310021096177614 32.2794071716808446 25.2452222023819672
 27.9310021096177614 32.2794071716808446 28.0170807846332330
 27.9310021096177614 32.2794071716808446 30.7889393668844988
 25.6479909917751243 33.9381118407025824 16.9296464556281663
 25.6479909917751243 33.9381118407025824 19.7015050378794356
 25.6479909917751243 33.9381118407025824 22.4733636201306979
 25.6479909917751243 33.9381118407025824 25.2452222023819672
 25.6479909917751243 33.9381118407025824 28.0170807846332330
 25.6479909917751243 33.9381118407025824 30.7889393668844988
 21.0819687560898430 33.9381118407025824 16.9296464556281663
 21.0819687560898430 33.9381118407025824 19.7015050378794356
 21.0819687560898430 33.9381118407025824 22.4733636201306979
 21.0819687560898430 33.9381118407025824 25.2452222023819672
 21.0819687560898430 33.9381118407025824 28.0170807846332330
 21.0819687560898430 33.9381118407025824 30.7889393668844988
 18.7989576382472059 32.2794071716808446 16.9296464556281663
 18.7989576382472059 32.2794071716808446 19.7015050378794356
 18.7989576382472059 32.2794071716808446 22.4733636201306979
 18.7989576382472059 32.2794071716808446 25.2452222023819672
 18.7989576382472059 32.2794071716808446 28.0170807846332330
 18.7989576382472059 32.2794071716808446 30.7889393668844988
 16.5159465204045652 30.6207025026591140 16.9296464556281663
 16.5159465204045652 30.6207025026591140 19.7015050378794356
 16.5159465204045652 30.6207025026591140 22.4733636201306979
 16.5159465204045652 30.6207025026591140 25.2452222023819672
 16.5159465204045652 30.6207025026591140 28.0170807846332330
 16.5159465204045652 30.6207025026591140 30.7889393668844988
 14.2329354025619264 28.9619978336373762 16.9296464556281663
 14.2329354025619264 28.9619978336373762 19.7015050378794356
 14.2329354025619264 28.9619978336373762 22.4733636201306979
 14.2329354025619264 28.9619978336373762 25.2452222023819672
 14.2329354025619264 28.9619978336373762 28.0170807846332330
 14.2329354025619264 28.9619978336373762 30.7889393668844988
 12.8219569350412836 24.6194526328403285 16.9296464556281663
 12.8219569350412836 24.6194526328403285 19.7015050378794356
 12.8219569350412836 24.6194526328403285 22.4733636201306979
 12.8219569350412836 24.6194526328403285 25.2452222023819672
 12.8219569350412836 24.6194526328403285 28.0170807846332330
 12.8219569350412836 24.6194526328403285 30.7889393668844988
 13.6939895853632798 21.9356121010650149 16.9296464556281663
 13.6939895853632798 21.9356121010650149 19.7015050378794356
 13.6939895853632798 21.9356121010650149 22.4733636201306979
 13.6939895853632798 21.9356121010650149 25.2452222023819672
 13.6939895853632798 21.9356121010650149 28.0170807846332330
 13.6939895853632798 21.9356121010650149 30.7889393668844988
 14.5660222356852760 19.2517715692897013 16.9296464556281663
 14.5660222356852760 19.2517715692897013 19.7015050378794356
 14.5660222356852760 19.2517715692897013 22.4733636201306979
 14.5660222356852760 19.2517715692897013 25.2452222023819672
 14.5660222356852760 19.2517715692897013 28.0170807846332330
 14.5660222356852760 19.2517715692897013 30.7889393668844988
 15.4380548860072722 16.5679310375143878 16.9296464556281663
 15.4380548860072722 16.5679310375143878 19.7015050378794356
 15.4380548860072722 16.5679310375143878 22.4733636201306979
 15.4380548860072722 16.5679310375143878 25.2452222023819672
 15.4380548860072722 16.5679310375143878 28.0170807846332330
 15.4380548860072722 16.5679310375143878 30.7889393668844988
 19.1320444713705555 13.8840905057390724 16.9296464556281663
 19.1320444713705555 13.8840905057390724 19.7015050378794356
 19.1320444713705555 13.8840905057390724 22.4733636201306979
 19.1320444713705555 13.8840905057390724 25.2452222023819672