Pt 
 1.0000000000000000
    58.6839611542768154    0.0000000000000000    0.0000000000000000
     0.0000000000000000   56.7906333318835550    0.0000000000000000
     0.0000000000000000    0.0000000000000000   47.7185858225126651
 Pt 
 961
Cartesian
 29.3419805771384112 29.4204525286953569 10.0000000000000018
 29.3419805771384112 29.4204525286953569 12.7718585822512676
 29.3419805771384112 29.4204525286953569 15.5437171645025352
 29.3419805771384112 29.4204525286953569 18.3155757467538010
 29.3419805771384112 29.4204525286953569 21.0874343290050668
 29.3419805771384112 29.4204525286953569 23.8592929112563326
 29.3419805771384112 29.4204525286953569 26.6311514935076019
 29.3419805771384112 29.4204525286953569 29.4030100757588642
 29.3419805771384112 29.4204525286953569 32.1748686580101335
 29.3419805771384112 29.4204525286953569 34.9467272402613958
 29.3419805771384112 29.4204525286953569 37.7185858225126651
 31.6249916949810519 30.1622478076011333 11.3859292911256347
 31.6249916949810519 30.1622478076011333 14.1577878733769005
 31.6249916949810519 30.1622478076011333 16.9296464556281663
 31.6249916949810519 30.1622478076011333 19.7015050378794356
 31.6249916949810519 30.1622478076011333 22.4733636201306979
 31.6249916949810519 30.1622478076011333 25.2452222023819672
 31.6249916949810519 30.1622478076011333 28.0170807846332330
 31.6249916949810519 30.1622478076011333 30.7889393668844988
 31.6249916949810519 30.1622478076011333 33.5607979491357611
 31.6249916949810519 30.1622478076011333 36.3326565313870304
 29.3419805771384112 31.8209524766228711 11.3859292911256347
 29.3419805771384112 31.8209524766228711 14.1577878733769005
 29.3419805771384112 31.8209524766228711 16.9296464556281663
 29.3419805771384112 31.8209524766228711 19.7015050378794356
 29.3419805771384112 31.8209524766228711 22.4733636201306979
 29.3419805771384112 31.8209524766228711 25.2452222023819672
 29.3419805771384112 31.8209524766228711 28.0170807846332330
 29.3419805771384112 31.8209524766228711 30.7889393668844988
 29.3419805771384112 31.8209524766228711 33.5607979491357611
 29.3419805771384112 31.8209524766228711 36.3326565313870304
 27.0589694592957706 30.1622478076011369 11.3859292911256347
 27.0589694592957706 30.1622478076011369 14.1577878733769005
 27.0589694592957706 30.1622478076011369 16.9296464556281663
 27.0589694592957706 30.1622478076011369 19.7015050378794356
 27.0589694592957706 30.1622478076011369 22.4733636201306979
 27.0589694592957706 30.1622478076011369 25.2452222023819672
 27.0589694592957706 30.1622478076011369 28.0170807846332330
 27.0589694592957706 30.1622478076011369 30.7889393668844988
 27.0589694592957706 30.1622478076011369 33.5607979491357611
 27.0589694592957706 30.1622478076011369 36.3326565313870304
 27.9310021096177685 27.4784072758258233 11.3859292911256347
 27.9310021096177685 27.4784072758258233 14.1577878733769005
 27.9310021096177685 27.4784072758258233 16.9296464556281663
 27.9310021096177685 27.4784072758258233 19.7015050378794356
 27.9310021096177685 27.4784072758258233 22.4733636201306979
 27.9310021096177685 27.4784072758258233 25.2452222023819672
 27.9310021096177685 27.4784072758258233 28.0170807846332330
 27.9310021096177685 27.4784072758258233 30.7889393668844988
 27.9310021096177685 27.4784072758258233 33.5607979491357611
 27.9310021096177685 27.4784072758258233 36.3326565313870304
 30.7529590446590539 27.4784072758258198 11.3859292911256347
 30.7529590446590539 27.4784072758258198 14.1577878733769005
 30.7529590446590539 27.4784072758258198 16.9296464556281663
 30.7529590446590539 27.4784072758258198 19.7015050378794356
 30.7529590446590539 27.4784072758258198 22.4733636201306979
 30.7529590446590539 27.4784072758258198 25.2452222023819672
 30.7529590446590539 27.4784072758258198 28.0170807846332330
 30.7529590446590539 27.4784072758258198 30.7889393668844988
 30.7529590446590539 27.4784072758258198 33.5607979491357611
 30.7529590446590539 27.4784072758258198 36.3326565313870304
 33.9080028128236890 30.9040430865069133 12.7718585822512676
 33.9080028128236890 30.9040430865069133 15.5437171645025334
 33.9080028128236890 30.9040430865069133 18.3155757467538010
 33.9080028128236890 30.9040430865069133 21.0874343290050668
 33.9080028128236890 30.9040430865069133 23.8592929112563326
 33.9080028128236890 30.9040430865069133 26.6311514935075984
 33.9080028128236890 30.9040430865069133 29.4030100757588642
 33.9080028128236890 30.9040430865069133 32.1748686580101335
 33.9080028128236890 30.9040430865069133 34.9467272402613958
 31.6249916949810519 32.5627477555286475 12.7718585822512676
 31.6249916949810519 32.5627477555286475 15.5437171645025334
 31.6249916949810519 32.5627477555286475 18.3155757467538010
 31.6249916949810519 32.5627477555286475 21.0874343290050668
 31.6249916949810519 32.5627477555286475 23.8592929112563326
 31.6249916949810519 32.5627477555286475 26.6311514935075984
 31.6249916949810519 32.5627477555286475 29.4030100757588642
 31.6249916949810519 32.5627477555286475 32.1748686580101335
 31.6249916949810519 32.5627477555286475 34.9467272402613958
 29.3419805771384112 34.2214524245503853 12.7718585822512676
 29.3419805771384112 34.2214524245503853 15.5437171645025334
 29.3419805771384112 34.2214524245503853 18.3155757467538010
 29.3419805771384112 34.2214524245503853 21.0874343290050668
 29.3419805771384112 34.2214524245503853 23.8592929112563326
 29.3419805771384112 34.2214524245503853 26.6311514935075984
 29.3419805771384112 34.2214524245503853 29.4030100757588642
 29.3419805771384112 34.2214524245503853 32.1748686580101335
 29.3419805771384112 34.2214524245503853 34.9467272402613958
 27.0589694592957706 32.5627477555286475 12.7718585822512676
 27.0589694592957706 32.5627477555286475 15.5437171645025334
 27.0589694592957706 32.5627477555286475 18.3155757467538010
 27.0589694592957706 32.5627477555286475 21.0874343290050668
 27.0589694592957706 32.5627477555286475 23.8592929112563326
 27.0589694592957706 32.5627477555286475 26.6311514935075984
 27.0589694592957706 32.5627477555286475 29.4030100757588642
 27.0589694592957706 32.5627477555286475 32.1748686580101335
 27.0589694592957706 32.5627477555286475 34.9467272402613958
 24.7759583414531335 30.9040430865069133 12.7718585822512676
 24.7759583414531335 30.9040430865069133 15.5437171645025334
 24.7759583414531335 30.9040430865069133 18.3155757467538010
 24.7759583414531335 30.9040430865069133 21.0874343290050668
 24.7759583414531335 30.9040430865069133 23.8592929112563326
 24.7759583414531335 30.9040430865069133 26.6311514935075984
 24.7759583414531335 30.9040430865069133 29.4030100757588642
 24.7759583414531335 30.9040430865069133 32.1748686580101335
 24.7759583414531335 30.9040430865069133 34.9467272402613958
 25.6479909917751279 28.2202025547315998 12.7718585822512676
 25.6479909917751279 28.2202025547315998 15.5437171645025334
 25.6479909917751279 28.2202025547315998 18.3155757467538010
 25.6479909917751279 28.2202025547315998 21.0874343290050668
 25.6479909917751279 28.2202025547315998 23.8592929112563326
 25.6479909917751279 28.2202025547315998 26.6311514935075984
 25.6479909917751279 28.2202025547315998 29.4030100757588642
 25.6479909917751279 28.2202025547315998 32.1748686580101335
 25.6479909917751279 28.2202025547315998 34.9467272402613958
 26.5200236420971258 25.5363620229562862 12.7718585822512676
 26.5200236420971258 25.5363620229562862 15.5437171645025334
 26.5200236420971258 25.5363620229562862 18.3155757467538010
 26.5200236420971258 25.5363620229562862 21.0874343290050668
 26.5200236420971258 25.5363620229562862 23.8592929112563326
 26.5200236420971258 25.5363620229562862 26.6311514935075984
 26.5200236420971258 25.5363620229562862 29.4030100757588642
 26.5200236420971258 25.5363620229562862 32.1748686580101335
 26.5200236420971258 25.5363620229562862 34.9467272402613958
 29.3419805771384112 25.5363620229562862 12.7718585822512676
 29.3419805771384112 25.5363620229562862 15.5437171645025334
 29.3419805771384112 25.5363620229562862 18.3155757467538010
 29.3419805771384112 25.5363620229562862 21.0874343290050668
 29.3419805771384112 25.5363620229562862 23.8592929112563326
 29.3419805771384112 25.5363620229562862 26.6311514935075984
 29.3419805771384112 25.5363620229562862 29.4030100757588642
 29.3419805771384112 25.5363620229562862 32.1748686580101335
 29.3419805771384112 25.5363620229562862 34.9467272402613958
 32.1639375121796931 25.5363620229562862 12.7718585822512676
 32.1639375121796931 25.5363620229562862 15.5437171645025334
 32.1639375121796931 25.5363620229562862 18.3155757467538010
 32.1639375121796931 25.5363620229562862 21.0874343290050668
 32.1639375121796931 25.5363620229562862 23.8592929112563326
 32.1639375121796931 25.5363620229562862 26.6311514935075984
 32.1639375121796931 25.5363620229562862 29.4030100757588642
 32.1639375121796931 25.5363620229562862 32.1748686580101335
 32.1639375121796931 25.5363620229562862 34.9467272402613958
 33.0359701625016910 28.2202025547315998 12.7718585822512676
 33.0359701625016910 28.2202025547315998 15.5437171645025334
 33.0359701625016910 28.2202025547315998 18.3155757467538010
 33.0359701625016910 28.2202025547315998 21.0874343290050668
 33.0359701625016910 28.2202025547315998 23.8592929112563326
 33.0359701625016910 28.2202025547315998 26.6311514935075984
 33.0359701625016910 28.2202025547315998 29.4030100757588642
 33.0359701625016910 28.2202025547315998 32.1748686580101335
 33.0359701625016910 28.2202025547315998 34.9467272402613958
 36.1910139306663297 31.6458383654126898 14.1577878733769005
 36.1910139306663297 31.6458383654126898 16.9296464556281663
 36.1910139306663297 31.6458383654126898 19.7015050378794321
 36.1910139306663297 31.6458383654126898 22.4733636201306979
 36.1910139306663297 31.6458383654126898 25.2452222023819672
 36.1910139306663297 31.6458383654126898 28.0170807846332295
 36.1910139306663297 31.6458383654126898 30.7889393668844988
 36.1910139306663297 31.6458383654126898 33.5607979491357611
 33.9080028128236890 33.3045430344344240 14.1577878733769005
 33.9080028128236890 33.3045430344344240 16.9296464556281663
 33.9080028128236890 33.3045430344344240 19.7015050378794321
 33.9080028128236890 33.3045430344344240 22.4733636201306979
 33.9080028128236890 33.3045430344344240 25.2452222023819672
 33.9080028128236890 33.3045430344344240 28.0170807846332295
 33.9080028128236890 33.3045430344344240 30.7889393668844988
 33.9080028128236890 33.3045430344344240 33.5607979491357611
 31.6249916949810519 34.9632477034561617 14.1577878733769005
 31.6249916949810519 34.9632477034561617 16.9296464556281663
 31.6249916949810519 34.9632477034561617 19.7015050378794321
 31.6249916949810519 34.9632477034561617 22.4733636201306979
 31.6249916949810519 34.9632477034561617 25.2452222023819672
 31.6249916949810519 34.9632477034561617 28.0170807846332295
 31.6249916949810519 34.9632477034561617 30.7889393668844988
 31.6249916949810519 34.9632477034561617 33.5607979491357611
 29.3419805771384112 36.6219523724778995 14.1577878733769005
 29.3419805771384112 36.6219523724778995 16.9296464556281663
 29.3419805771384112 36.6219523724778995 19.7015050378794321
 29.3419805771384112 36.6219523724778995 22.4733636201306979
 29.3419805771384112 36.6219523724778995 25.2452222023819672
 29.3419805771384112 36.6219523724778995 28.0170807846332295
 29.3419805771384112 36.6219523724778995 30.7889393668844988
 29.3419805771384112 36.6219523724778995 33.5607979491357611
 27.0589694592957741 34.9632477034561617 14.1577878733769005
 27.0589694592957741 34.9632477034561617 16.9296464556281663
 27.0589694592957741 34.9632477034561617 19.7015050378794321
 27.0589694592957741 34.9632477034561617 22.4733636201306979
 27.0589694592957741 34.9632477034561617 25.2452222023819672
 27.0589694592957741 34.9632477034561617 28.0170807846332295
 27.0589694592957741 34.9632477034561617 30.7889393668844988
 27.0589694592957741 34.9632477034561617 33.5607979491357611
 24.7759583414531335 33.3045430344344311 14.1577878733769005
 24.7759583414531335 33.3045430344344311 16.9296464556281663
 24.7759583414531335 33.3045430344344311 19.7015050378794321
 24.7759583414531335 33.3045430344344311 22.4733636201306979
 24.7759583414531335 33.3045430344344311 25.2452222023819672
 24.7759583414531335 33.3045430344344311 28.0170807846332295
 24.7759583414531335 33.3045430344344311 30.7889393668844988
 24.7759583414531335 33.3045430344344311 33.5607979491357611
 22.4929472236104928 31.6458383654126933 14.1577878733769005
 22.4929472236104928 31.6458383654126933 16.9296464556281663
 22.4929472236104928 31.6458383654126933 19.7015050378794321
 22.4929472236104928 31.6458383654126933 22.4733636201306979
 22.4929472236104928 31.6458383654126933 25.2452222023819672
 22.4929472236104928 31.6458383654126933 28.0170807846332295
 22.4929472236104928 31.6458383654126933 30.7889393668844988
 22.4929472236104928 31.6458383654126933 33.5607979491357611
 23.3649798739324908 28.9619978336373798 14.1577878733769005
 23.3649798739324908 28.9619978336373798 16.9296464556281663
 23.3649798739324908 28.9619978336373798 19.7015050378794321
 23.3649798739324908 28.9619978336373798 22.4733636201306979
 23.3649798739324908 28.9619978336373798 25.2452222023819672
 23.3649798739324908 28.9619978336373798 28.0170807846332295
 23.3649798739324908 28.9619978336373798 30.7889393668844988
 23.3649798739324908 28.9619978336373798 33.5607979491357611
 24.2370125242544852 26.2781573018620662 14.1577878733769005
 24.2370125242544852 26.2781573018620662 16.9296464556281663
 24.2370125242544852 26.2781573018620662 19.7015050378794321
 24.2370125242544852 26.2781573018620662 22.4733636201306979
 24.2370125242544852 26.2781573018620662 25.2452222023819672
 24.2370125242544852 26.2781573018620662 28.0170807846332295
 24.2370125242544852 26.2781573018620662 30.7889393668844988
 24.2370125242544852 26.2781573018620662 33.5607979491357611
 25.1090451745764831 23.5943167700867527 14.1577878733769005
 25.1090451745764831 23.5943167700867527 16.9296464556281663
 25.1090451745764831 23.5943167700867527 19.7015050378794321
 25.1090451745764831 23.5943167700867527 22.4733636201306979
 25.1090451745764831 23.5943167700867527 25.2452222023819672
 25.1090451745764831 23.5943167700867527 28.0170807846332295
 25.1090451745764831 23.5943167700867527 30.7889393668844988
 25.1090451745764831 23.5943167700867527 33.5607979491357611
 27.9310021096177685 23.5943167700867491 14.1577878733769005
 27.9310021096177685 23.5943167700867491 16.9296464556281663
 27.9310021096177685 23.5943167700867491 19.7015050378794321
 27.9310021096177685 23.5943167700867491 22.4733636201306979
 27.9310021096177685 23.5943167700867491 25.2452222023819672
 27.9310021096177685 23.5943167700867491 28.0170807846332295
 27.9310021096177685 23.5943167700867491 30.7889393668844988
 27.9310021096177685 23.5943167700867491 33.5607979491357611
 30.7529590446590539 23.5943167700867491 14.1577878733769005
 30.7529590446590539 23.5943167700867491 16.9296464556281663
 30.7529590446590539 23.5943167700867491 19.7015050378794321
 30.7529590446590539 23.5943167700867491 22.4733636201306979
 30.7529590446590539 23.5943167700867491 25.2452222023819672
 30.7529590446590539 23.5943167700867491 28.0170807846332295
 30.7529590446590539 23.5943167700867491 30.7889393668844988
 30.7529590446590539 23.5943167700867491 33.5607979491357611
 33.5749159797003358 23.5943167700867491 14.1577878733769005
 33.5749159797003358 23.5943167700867491 16.9296464556281663
 33.5749159797003358 23.5943167700867491 19.7015050378794321
 33.5749159797003358 23.5943167700867491 22.4733636201306979
 33.5749159797003358 23.5943167700867491 25.2452222023819672
 33.5749159797003358 23.5943167700867491 28.0170807846332295
 33.5749159797003358 23.5943167700867491 30.7889393668844988
 33.5749159797003358 23.5943167700867491 33.5607979491357611
 34.4469486300223338 26.2781573018620627 14.1577878733769005
 34.4469486300223338 26.2781573018620627 16.9296464556281663
 34.4469486300223338 26.2781573018620627 19.7015050378794321
 34.4469486300223338 26.2781573018620627 22.4733636201306979
 34.4469486300223338 26.2781573018620627 25.2452222023819672
 34.4469486300223338 26.2781573018620627 28.0170807846332295
 34.4469486300223338 26.2781573018620627 30.7889393668844988
 34.4469486300223338 26.2781573018620627 33.5607979491357611
 35.3189812803443317 28.9619978336373762 14.1577878733769005
 35.3189812803443317 28.9619978336373762 16.9296464556281663
 35.3189812803443317 28.9619978336373762 19.7015050378794321
 35.3189812803443317 28.9619978336373762 22.4733636201306979
 35.3189812803443317 28.9619978336373762 25.2452222023819672
 35.3189812803443317 28.9619978336373762 28.0170807846332295
 35.3189812803443317 28.9619978336373762 30.7889393668844988
 35.3189812803443317 28.9619978336373762 33.5607979491357611
 38.4740250485089703 32.3876336443184698 15.5437171645025334
 38.4740250485089703 32.3876336443184698 18.3155757467538010
 38.4740250485089703 32.3876336443184698 21.0874343290050668
 38.4740250485089703 32.3876336443184698 23.8592929112563326
 38.4740250485089703 32.3876336443184698 26.6311514935075984
 38.4740250485089703 32.3876336443184698 29.4030100757588642
 38.4740250485089703 32.3876336443184698 32.1748686580101335
 36.1910139306663297 34.0463383133402004 15.5437171645025334
 36.1910139306663297 34.0463383133402004 18.3155757467538010
 36.1910139306663297 34.0463383133402004 21.0874343290050668
 36.1910139306663297 34.0463383133402004 23.8592929112563326
 36.1910139306663297 34.0463383133402004 26.6311514935075984
 36.1910139306663297 34.0463383133402004 29.4030100757588642
 36.1910139306663297 34.0463383133402004 32.1748686580101335
 33.9080028128236890 35.7050429823619382 15.5437171645025334
 33.9080028128236890 35.7050429823619382 18.3155757467538010
 33.9080028128236890 35.7050429823619382 21.0874343290050668
 33.9080028128236890 35.7050429823619382 23.8592929112563326
 33.9080028128236890 35.7050429823619382 26.6311514935075984
 33.9080028128236890 35.7050429823619382 29.4030100757588642
 33.9080028128236890 35.7050429823619382 32.1748686580101335
 31.6249916949810519 37.3637476513836759 15.5437171645025334
 31.6249916949810519 37.3637476513836759 18.3155757467538010
 31.6249916949810519 37.3637476513836759 21.0874343290050668
 31.6249916949810519 37.3637476513836759 23.8592929112563326
 31.6249916949810519 37.3637476513836759 26.6311514935075984
 31.6249916949810519 37.3637476513836759 29.4030100757588642
 31.6249916949810519 37.3637476513836759 32.1748686580101335
 29.3419805771384112 39.0224523204054137 15.5437171645025334
 29.3419805771384112 39.0224523204054137 18.3155757467538010
 29.3419805771384112 39.0224523204054137 21.0874343290050668
 29.3419805771384112 39.0224523204054137 23.8592929112563326
 29.3419805771384112 39.0224523204054137 26.6311514935075984
 29.3419805771384112 39.0224523204054137 29.4030100757588642
 29.3419805771384112 39.0224523204054137 32.1748686580101335
 27.0589694592957741 37.3637476513836759 15.5437171645025334
 27.0589694592957741 37.3637476513836759 18.3155757467538010
 27.0589694592957741 37.3637476513836759 21.0874343290050668
 27.0589694592957741 37.3637476513836759 23.8592929112563326
 27.0589694592957741 37.3637476513836759 26.6311514935075984
 27.0589694592957741 37.3637476513836759 29.4030100757588642
 27.0589694592957741 37.3637476513836759 32.1748686580101335
 24.7759583414531335 35.7050429823619453 15.5437171645025334
 24.7759583414531335 35.7050429823619453 18.3155757467538010
 24.7759583414531335 35.7050429823619453 21.0874343290050668
 24.7759583414531335 35.7050429823619453 23.8592929112563326
 24.7759583414531335 35.7050429823619453 26.6311514935075984
 24.7759583414531335 35.7050429823619453 29.4030100757588642
 24.7759583414531335 35.7050429823619453 32.1748686580101335
 22.4929472236104928 34.0463383133402075 15.5437171645025334
 22.4929472236104928 34.0463383133402075 18.3155757467538010
 22.4929472236104928 34.0463383133402075 21.0874343290050668
 22.4929472236104928 34.0463383133402075 23.8592929112563326
 22.4929472236104928 34.0463383133402075 26.6311514935075984
 22.4929472236104928 34.0463383133402075 29.4030100757588642
 22.4929472236104928 34.0463383133402075 32.1748686580101335
 20.2099361057678522 32.3876336443184698 15.5437171645025334
 20.2099361057678522 32.3876336443184698 18.3155757467538010
 20.2099361057678522 32.3876336443184698 21.0874343290050668
 20.2099361057678522 32.3876336443184698 23.8592929112563326
 20.2099361057678522 32.3876336443184698 26.6311514935075984
 20.2099361057678522 32.3876336443184698 29.4030100757588642
 20.2099361057678522 32.3876336443184698 32.1748686580101335
 21.0819687560898501 29.7037931125431562 15.5437171645025334
 21.0819687560898501 29.7037931125431562 18.3155757467538010
 21.0819687560898501 29.7037931125431562 21.0874343290050668
 21.0819687560898501 29.7037931125431562 23.8592929112563326
 21.0819687560898501 29.7037931125431562 26.6311514935075984
 21.0819687560898501 29.7037931125431562 29.4030100757588642
 21.0819687560898501 29.7037931125431562 32.1748686580101335
 21.9540014064118481 27.0199525807678427 15.5437171645025334
 21.9540014064118481 27.0199525807678427 18.3155757467538010
 21.9540014064118481 27.0199525807678427 21.0874343290050668
 21.9540014064118481 27.0199525807678427 23.8592929112563326
 21.9540014064118481 27.0199525807678427 26.6311514935075984
 21.9540014064118481 27.0199525807678427 29.4030100757588642
 21.9540014064118481 27.0199525807678427 32.1748686580101335
 22.8260340567338424 24.3361120489925291 15.5437171645025334
 22.8260340567338424 24.3361120489925291 18.3155757467538010
 22.8260340567338424 24.3361120489925291 21.0874343290050668
 22.8260340567338424 24.3361120489925291 23.8592929112563326
 22.8260340567338424 24.3361120489925291 26.6311514935075984
 22.8260340567338424 24.3361120489925291 29.4030100757588642
 22.8260340567338424 24.3361120489925291 32.1748686580101335
 23.6980667070558404 21.6522715172172155 15.5437171645025334
 23.6980667070558404 21.6522715172172155 18.3155757467538010
 23.6980667070558404 21.6522715172172155 21.0874343290050668
 23.6980667070558404 21.6522715172172155 23.8592929112563326
 23.6980667070558404 21.6522715172172155 26.6311514935075984
 23.6980667070558404 21.6522715172172155 29.4030100757588642
 23.6980667070558404 21.6522715172172155 32.1748686580101335
 26.5200236420971223 21.6522715172172155 15.5437171645025334
 26.5200236420971223 21.6522715172172155 18.3155757467538010
 26.5200236420971223 21.6522715172172155 21.0874343290050668
 26.5200236420971223 21.6522715172172155 23.8592929112563326
 26.5200236420971223 21.6522715172172155 26.6311514935075984
 26.5200236420971223 21.6522715172172155 29.4030100757588642
 26.5200236420971223 21.6522715172172155 32.1748686580101335
 29.3419805771384077 21.6522715172172155 15.5437171645025334
 29.3419805771384077 21.6522715172172155 18.3155757467538010
 29.3419805771384077 21.6522715172172155 21.0874343290050668
 29.3419805771384077 21.6522715172172155 23.8592929112563326
 29.3419805771384077 21.6522715172172155 26.6311514935075984
 29.3419805771384077 21.6522715172172155 29.4030100757588642
 29.3419805771384077 21.6522715172172155 32.1748686580101335
 32.1639375121796931 21.6522715172172155 15.5437171645025334
 32.1639375121796931 21.6522715172172155 18.3155757467538010
 32.1639375121796931 21.6522715172172155 21.0874343290050668
 32.1639375121796931 21.6522715172172155 23.8592929112563326
 32.1639375121796931 21.6522715172172155 26.6311514935075984
 32.1639375121796931 21.6522715172172155 29.4030100757588642
 32.1639375121796931 21.6522715172172155 32.1748686580101335
 34.9858944472209785 21.6522715172172155 15.5437171645025334
 34.9858944472209785 21.6522715172172155 18.3155757467538010
 34.9858944472209785 21.6522715172172155 21.0874343290050668
 34.9858944472209785 21.6522715172172155 23.8592929112563326
 34.9858944472209785 21.6522715172172155 26.6311514935075984
 34.9858944472209785 21.6522715172172155 29.4030100757588642
 34.9858944472209785 21.6522715172172155 32.1748686580101335
 35.8579270975429765 24.3361120489925256 15.5437171645025334
 35.8579270975429765 24.3361120489925256 18.3155757467538010
 35.8579270975429765 24.3361120489925256 21.0874343290050668
 35.8579270975429765 24.3361120489925256 23.8592929112563326
 35.8579270975429765 24.3361120489925256 26.6311514935075984
 35.8579270975429765 24.3361120489925256 29.4030100757588642
 35.8579270975429765 24.3361120489925256 32.1748686580101335
 36.7299597478649744 27.0199525807678427 15.5437171645025334
 36.7299597478649744 27.0199525807678427 18.3155757467538010
 36.7299597478649744 27.0199525807678427 21.0874343290050668
 36.7299597478649744 27.0199525807678427 23.8592929112563326
 36.7299597478649744 27.0199525807678427 26.6311514935075984
 36.7299597478649744 27.0199525807678427 29.4030100757588642
 36.7299597478649744 27.0199525807678427 32.1748686580101335
 37.6019923981869724 29.7037931125431527 15.5437171645025334
 37.6019923981869724 29.7037931125431527 18.3155757467538010
 37.6019923981869724 29.7037931125431527 21.0874343290050668
 37.6019923981869724 29.7037931125431527 23.8592929112563326
 37.6019923981869724 29.7037931125431527 26.6311514935075984
 37.6019923981869724 29.7037931125431527 29.4030100757588642
 37.6019923981869724 29.7037931125431527 32.1748686580101335
 40.7570361663516110 33.1294289232242463 16.9296464556281663
 40.7570361663516110 33.1294289232242463 19.7015050378794356
 40.7570361663516110 33.1294289232242463 22.4733636201306979
 40.7570361663516110 33.1294289232242463 25.2452222023819672
 40.7570361663516110 33.1294289232242463 28.0170807846332330
 40.7570361663516110 33.1294289232242463 30.7889393668844988
 38.4740250485089703 34.7881335922459840 16.9296464556281663
 38.4740250485089703 34.7881335922459840 19.7015050378794356
 38.4740250485089703 34.7881335922459840 22.4733636201306979
 38.4740250485089703 34.7881335922459840 25.2452222023819672
 38.4740250485089703 34.7881335922459840 28.0170807846332330
 38.4740250485089703 34.7881335922459840 30.7889393668844988
 36.1910139306663297 36.4468382612677146 16.9296464556281663
 36.1910139306663297 36.4468382612677146 19.7015050378794356
 36.1910139306663297 36.4468382612677146 22.4733636201306979
 36.1910139306663297 36.4468382612677146 25.2452222023819672
 36.1910139306663297 36.4468382612677146 28.0170807846332330
 36.1910139306663297 36.4468382612677146 30.7889393668844988
 33.9080028128236890 38.1055429302894524 16.9296464556281663
 33.9080028128236890 38.1055429302894524 19.7015050378794356
 33.9080028128236890 38.1055429302894524 22.4733636201306979
 33.9080028128236890 38.1055429302894524 25.2452222023819672
 33.9080028128236890 38.1055429302894524 28.0170807846332330
 33.9080028128236890 38.1055429302894524 30.7889393668844988
 31.6249916949810519 39.7642475993111901 16.9296464556281663
 31.6249916949810519 39.7642475993111901 19.7015050378794356
 31.6249916949810519 39.7642475993111901 22.4733636201306979
 31.6249916949810519 39.7642475993111901 25.2452222023819672
 31.6249916949810519 39.7642475993111901 28.0170807846332330
 31.6249916949810519 39.7642475993111901 30.7889393668844988
 29.3419805771384112 41.4229522683329279 16.9296464556281663
 29.3419805771384112 41.4229522683329279 19.7015050378794356
 29.3419805771384112 41.4229522683329279 22.4733636201306979
 29.3419805771384112 41.4229522683329279 25.2452222023819672
 29.3419805771384112 41.4229522683329279 28.0170807846332330
 29.3419805771384112 41.4229522683329279 30.7889393668844988
 27.0589694592957741 39.7642475993111901 16.9296464556281663
 27.0589694592957741 39.7642475993111901 19.7015050378794356
 27.0589694592957741 39.7642475993111901 22.4733636201306979
 27.0589694592957741 39.7642475993111901 25.2452222023819672
 27.0589694592957741 39.7642475993111901 28.0170807846332330
 27.0589694592957741 39.7642475993111901 30.7889393668844988
 24.7759583414531335 38.1055429302894595 16.9296464556281663
 24.7759583414531335 38.1055429302894595 19.7015050378794356
 24.7759583414531335 38.1055429302894595 22.4733636201306979
 24.7759583414531335 38.1055429302894595 25.2452222023819672
 24.7759583414531335 38.1055429302894595 28.0170807846332330
 24.7759583414531335 38.1055429302894595 30.7889393668844988
 22.4929472236104928 36.4468382612677217 16.9296464556281663
 22.4929472236104928 36.4468382612677217 19.7015050378794356
 22.4929472236104928 36.4468382612677217 22.4733636201306979
 22.4929472236104928 36.4468382612677217 25.2452222023819672
 22.4929472236104928 36.4468382612677217 28.0170807846332330
 22.4929472236104928 36.4468382612677217 30.7889393668844988
 20.2099361057678522 34.7881335922459840 16.9296464556281663
 20.2099361057678522 34.7881335922459840 19.7015050378794356
 20.2099361057678522 34.7881335922459840 22.4733636201306979
 20.2099361057678522 34.7881335922459840 25.2452222023819672
 20.2099361057678522 34.7881335922459840 28.0170807846332330
 20.2099361057678522 34.7881335922459840 30.7889393668844988
 17.9269249879252150 33.1294289232242463 16.9296464556281663
 17.9269249879252150 33.1294289232242463 19.7015050378794356
 17.9269249879252150 33.1294289232242463 22.4733636201306979
 17.9269249879252150 33.1294289232242463 25.2452222023819672
 17.9269249879252150 33.1294289232242463 28.0170807846332330
 17.9269249879252150 33.1294289232242463 30.7889393668844988
 18.7989576382472094 30.4455883914489362 16.9296464556281663
 18.7989576382472094 30.4455883914489362 19.7015050378794356
 18.7989576382472094 30.4455883914489362 22.4733636201306979
 18.7989576382472094 30.4455883914489362 25.2452222023819672
 18.7989576382472094 30.4455883914489362 28.0170807846332330
 18.7989576382472094 30.4455883914489362 30.7889393668844988
 19.6709902885692074 27.7617478596736227 16.9296464556281663
 19.6709902885692074 27.7617478596736227 19.7015050378794356
 19.6709902885692074 27.7617478596736227 22.4733636201306979
 19.6709902885692074 27.7617478596736227 25.2452222023819672