Pt 
 1.0000000000000000
    42.8301111784263924    0.0000000000000000    0.0000000000000000
     0.0000000000000000   41.7127260039852530    0.0000000000000000
     0.0000000000000000    0.0000000000000000   42.1748686580101264
 Pt 
 409
Cartesian
 21.4150555892131962 19.7102262643476820  9.9999999999999982
 21.4150555892131962 19.7102262643476820 12.7718585822512640
 21.4150555892131962 19.7102262643476820 15.5437171645025316
 21.4150555892131962 19.7102262643476820 18.3155757467537974
 21.4150555892131962 19.7102262643476820 21.0874343290050632
 21.4150555892131962 19.7102262643476820 23.8592929112563290
 21.4150555892131962 19.7102262643476820 26.6311514935075948
 21.4150555892131962 19.7102262643476820 29.4030100757588642
 21.4150555892131962 19.7102262643476820 32.1748686580101264
 23.6980667070558368 20.4520215432534584 11.3859292911256311
 23.6980667070558368 20.4520215432534584 14.1577878733768969
 23.6980667070558368 20.4520215432534584 16.9296464556281627
 23.6980667070558368 20.4520215432534584 19.7015050378794285
 23.6980667070558368 20.4520215432534584 22.4733636201306979
 23.6980667070558368 20.4520215432534584 25.2452222023819601
 23.6980667070558368 20.4520215432534584 28.0170807846332295
 23.6980667070558368 20.4520215432534584 30.7889393668844953
 21.4150555892131962 22.1107262122751962 11.3859292911256311
 21.4150555892131962 22.1107262122751962 14.1577878733768969
 21.4150555892131962 22.1107262122751962 16.9296464556281627
 21.4150555892131962 22.1107262122751962 19.7015050378794285
 21.4150555892131962 22.1107262122751962 22.4733636201306979
 21.4150555892131962 22.1107262122751962 25.2452222023819601
 21.4150555892131962 22.1107262122751962 28.0170807846332295
 21.4150555892131962 22.1107262122751962 30.7889393668844953
 19.1320444713705555 20.4520215432534620 11.3859292911256311
 19.1320444713705555 20.4520215432534620 14.1577878733768969
 19.1320444713705555 20.4520215432534620 16.9296464556281627
 19.1320444713705555 20.4520215432534620 19.7015050378794285
 19.1320444713705555 20.4520215432534620 22.4733636201306979
 19.1320444713705555 20.4520215432534620 25.2452222023819601
 19.1320444713705555 20.4520215432534620 28.0170807846332295
 19.1320444713705555 20.4520215432534620 30.7889393668844953
 20.0040771216925535 17.7681810114781484 11.3859292911256311
 20.0040771216925535 17.7681810114781484 14.1577878733768969
 20.0040771216925535 17.7681810114781484 16.9296464556281627
 20.0040771216925535 17.7681810114781484 19.7015050378794285
 20.0040771216925535 17.7681810114781484 22.4733636201306979
 20.0040771216925535 17.7681810114781484 25.2452222023819601
 20.0040771216925535 17.7681810114781484 28.0170807846332295
 20.0040771216925535 17.7681810114781484 30.7889393668844953
 22.8260340567338389 17.7681810114781449 11.3859292911256311
 22.8260340567338389 17.7681810114781449 14.1577878733768969
 22.8260340567338389 17.7681810114781449 16.9296464556281627
 22.8260340567338389 17.7681810114781449 19.7015050378794285
 22.8260340567338389 17.7681810114781449 22.4733636201306979
 22.8260340567338389 17.7681810114781449 25.2452222023819601
 22.8260340567338389 17.7681810114781449 28.0170807846332295
 22.8260340567338389 17.7681810114781449 30.7889393668844953
 25.9810778248984739 21.1938168221592385 12.7718585822512640
 25.9810778248984739 21.1938168221592385 15.5437171645025298
 25.9810778248984739 21.1938168221592385 18.3155757467537974
 25.9810778248984739 21.1938168221592385 21.0874343290050632
 25.9810778248984739 21.1938168221592385 23.8592929112563290
 25.9810778248984739 21.1938168221592385 26.6311514935075948
 25.9810778248984739 21.1938168221592385 29.4030100757588642
 23.6980667070558368 22.8525214911809726 12.7718585822512640
 23.6980667070558368 22.8525214911809726 15.5437171645025298
 23.6980667070558368 22.8525214911809726 18.3155757467537974
 23.6980667070558368 22.8525214911809726 21.0874343290050632
 23.6980667070558368 22.8525214911809726 23.8592929112563290
 23.6980667070558368 22.8525214911809726 26.6311514935075948
 23.6980667070558368 22.8525214911809726 29.4030100757588642
 21.4150555892131962 24.5112261602027104 12.7718585822512640
 21.4150555892131962 24.5112261602027104 15.5437171645025298
 21.4150555892131962 24.5112261602027104 18.3155757467537974
 21.4150555892131962 24.5112261602027104 21.0874343290050632
 21.4150555892131962 24.5112261602027104 23.8592929112563290
 21.4150555892131962 24.5112261602027104 26.6311514935075948
 21.4150555892131962 24.5112261602027104 29.4030100757588642
 19.1320444713705555 22.8525214911809726 12.7718585822512640
 19.1320444713705555 22.8525214911809726 15.5437171645025298
 19.1320444713705555 22.8525214911809726 18.3155757467537974
 19.1320444713705555 22.8525214911809726 21.0874343290050632
 19.1320444713705555 22.8525214911809726 23.8592929112563290
 19.1320444713705555 22.8525214911809726 26.6311514935075948
 19.1320444713705555 22.8525214911809726 29.4030100757588642
 16.8490333535279184 21.1938168221592385 12.7718585822512640
 16.8490333535279184 21.1938168221592385 15.5437171645025298
 16.8490333535279184 21.1938168221592385 18.3155757467537974
 16.8490333535279184 21.1938168221592385 21.0874343290050632
 16.8490333535279184 21.1938168221592385 23.8592929112563290
 16.8490333535279184 21.1938168221592385 26.6311514935075948
 16.8490333535279184 21.1938168221592385 29.4030100757588642
 17.7210660038499128 18.5099762903839249 12.7718585822512640
 17.7210660038499128 18.5099762903839249 15.5437171645025298
 17.7210660038499128 18.5099762903839249 18.3155757467537974
 17.7210660038499128 18.5099762903839249 21.0874343290050632
 17.7210660038499128 18.5099762903839249 23.8592929112563290
 17.7210660038499128 18.5099762903839249 26.6311514935075948
 17.7210660038499128 18.5099762903839249 29.4030100757588642
 18.5930986541719108 15.8261357586086113 12.7718585822512640
 18.5930986541719108 15.8261357586086113 15.5437171645025298
 18.5930986541719108 15.8261357586086113 18.3155757467537974
 18.5930986541719108 15.8261357586086113 21.0874343290050632
 18.5930986541719108 15.8261357586086113 23.8592929112563290
 18.5930986541719108 15.8261357586086113 26.6311514935075948
 18.5930986541719108 15.8261357586086113 29.4030100757588642
 21.4150555892131962 15.8261357586086113 12.7718585822512640
 21.4150555892131962 15.8261357586086113 15.5437171645025298
 21.4150555892131962 15.8261357586086113 18.3155757467537974
 21.4150555892131962 15.8261357586086113 21.0874343290050632
 21.4150555892131962 15.8261357586086113 23.8592929112563290
 21.4150555892131962 15.8261357586086113 26.6311514935075948
 21.4150555892131962 15.8261357586086113 29.4030100757588642
 24.2370125242544816 15.8261357586086113 12.7718585822512640
 24.2370125242544816 15.8261357586086113 15.5437171645025298
 24.2370125242544816 15.8261357586086113 18.3155757467537974
 24.2370125242544816 15.8261357586086113 21.0874343290050632
 24.2370125242544816 15.8261357586086113 23.8592929112563290
 24.2370125242544816 15.8261357586086113 26.6311514935075948
 24.2370125242544816 15.8261357586086113 29.4030100757588642
 25.1090451745764796 18.5099762903839249 12.7718585822512640
 25.1090451745764796 18.5099762903839249 15.5437171645025298
 25.1090451745764796 18.5099762903839249 18.3155757467537974
 25.1090451745764796 18.5099762903839249 21.0874343290050632
 25.1090451745764796 18.5099762903839249 23.8592929112563290
 25.1090451745764796 18.5099762903839249 26.6311514935075948
 25.1090451745764796 18.5099762903839249 29.4030100757588642
 28.2640889427411146 21.9356121010650149 14.1577878733768969
 28.2640889427411146 21.9356121010650149 16.9296464556281663
 28.2640889427411146 21.9356121010650149 19.7015050378794285
 28.2640889427411146 21.9356121010650149 22.4733636201306979
 28.2640889427411146 21.9356121010650149 25.2452222023819637
 28.2640889427411146 21.9356121010650149 28.0170807846332295
 25.9810778248984739 23.5943167700867527 14.1577878733768969
 25.9810778248984739 23.5943167700867527 16.9296464556281663
 25.9810778248984739 23.5943167700867527 19.7015050378794285
 25.9810778248984739 23.5943167700867527 22.4733636201306979
 25.9810778248984739 23.5943167700867527 25.2452222023819637
 25.9810778248984739 23.5943167700867527 28.0170807846332295
 23.6980667070558368 25.2530214391084868 14.1577878733768969
 23.6980667070558368 25.2530214391084868 16.9296464556281663
 23.6980667070558368 25.2530214391084868 19.7015050378794285
 23.6980667070558368 25.2530214391084868 22.4733636201306979
 23.6980667070558368 25.2530214391084868 25.2452222023819637
 23.6980667070558368 25.2530214391084868 28.0170807846332295
 21.4150555892131962 26.9117261081302246 14.1577878733768969
 21.4150555892131962 26.9117261081302246 16.9296464556281663
 21.4150555892131962 26.9117261081302246 19.7015050378794285
 21.4150555892131962 26.9117261081302246 22.4733636201306979
 21.4150555892131962 26.9117261081302246 25.2452222023819637
 21.4150555892131962 26.9117261081302246 28.0170807846332295
 19.1320444713705555 25.2530214391084868 14.1577878733768969
 19.1320444713705555 25.2530214391084868 16.9296464556281663
 19.1320444713705555 25.2530214391084868 19.7015050378794285
 19.1320444713705555 25.2530214391084868 22.4733636201306979
 19.1320444713705555 25.2530214391084868 25.2452222023819637
 19.1320444713705555 25.2530214391084868 28.0170807846332295
 16.8490333535279184 23.5943167700867527 14.1577878733768969
 16.8490333535279184 23.5943167700867527 16.9296464556281663
 16.8490333535279184 23.5943167700867527 19.7015050378794285
 16.8490333535279184 23.5943167700867527 22.4733636201306979
 16.8490333535279184 23.5943167700867527 25.2452222023819637
 16.8490333535279184 23.5943167700867527 28.0170807846332295
 14.5660222356852778 21.9356121010650185 14.1577878733768969
 14.5660222356852778 21.9356121010650185 16.9296464556281663
 14.5660222356852778 21.9356121010650185 19.7015050378794285
 14.5660222356852778 21.9356121010650185 22.4733636201306979
 14.5660222356852778 21.9356121010650185 25.2452222023819637
 14.5660222356852778 21.9356121010650185 28.0170807846332295
 15.4380548860072757 19.2517715692897049 14.1577878733768969
 15.4380548860072757 19.2517715692897049 16.9296464556281663
 15.4380548860072757 19.2517715692897049 19.7015050378794285
 15.4380548860072757 19.2517715692897049 22.4733636201306979
 15.4380548860072757 19.2517715692897049 25.2452222023819637
 15.4380548860072757 19.2517715692897049 28.0170807846332295
 16.3100875363292701 16.5679310375143913 14.1577878733768969
 16.3100875363292701 16.5679310375143913 16.9296464556281663
 16.3100875363292701 16.5679310375143913 19.7015050378794285
 16.3100875363292701 16.5679310375143913 22.4733636201306979
 16.3100875363292701 16.5679310375143913 25.2452222023819637
 16.3100875363292701 16.5679310375143913 28.0170807846332295
 17.1821201866512681 13.8840905057390778 14.1577878733768969
 17.1821201866512681 13.8840905057390778 16.9296464556281663
 17.1821201866512681 13.8840905057390778 19.7015050378794285
 17.1821201866512681 13.8840905057390778 22.4733636201306979
 17.1821201866512681 13.8840905057390778 25.2452222023819637
 17.1821201866512681 13.8840905057390778 28.0170807846332295
 20.0040771216925535 13.8840905057390760 14.1577878733768969
 20.0040771216925535 13.8840905057390760 16.9296464556281663
 20.0040771216925535 13.8840905057390760 19.7015050378794285
 20.0040771216925535 13.8840905057390760 22.4733636201306979
 20.0040771216925535 13.8840905057390760 25.2452222023819637
 20.0040771216925535 13.8840905057390760 28.0170807846332295
 22.8260340567338389 13.8840905057390742 14.1577878733768969
 22.8260340567338389 13.8840905057390742 16.9296464556281663
 22.8260340567338389 13.8840905057390742 19.7015050378794285
 22.8260340567338389 13.8840905057390742 22.4733636201306979
 22.8260340567338389 13.8840905057390742 25.2452222023819637
 22.8260340567338389 13.8840905057390742 28.0170807846332295
 25.6479909917751243 13.8840905057390742 14.1577878733768969
 25.6479909917751243 13.8840905057390742 16.9296464556281663
 25.6479909917751243 13.8840905057390742 19.7015050378794285
 25.6479909917751243 13.8840905057390742 22.4733636201306979
 25.6479909917751243 13.8840905057390742 25.2452222023819637
 25.6479909917751243 13.8840905057390742 28.0170807846332295
 26.5200236420971187 16.5679310375143878 14.1577878733768969
 26.5200236420971187 16.5679310375143878 16.9296464556281663
 26.5200236420971187 16.5679310375143878 19.7015050378794285
 26.5200236420971187 16.5679310375143878 22.4733636201306979
 26.5200236420971187 16.5679310375143878 25.2452222023819637
 26.5200236420971187 16.5679310375143878 28.0170807846332295
 27.3920562924191167 19.2517715692897013 14.1577878733768969
 27.3920562924191167 19.2517715692897013 16.9296464556281663
 27.3920562924191167 19.2517715692897013 19.7015050378794285
 27.3920562924191167 19.2517715692897013 22.4733636201306979
 27.3920562924191167 19.2517715692897013 25.2452222023819637
 27.3920562924191167 19.2517715692897013 28.0170807846332295
 30.5471000605837517 22.6774073799707914 15.5437171645025316
 30.5471000605837517 22.6774073799707914 18.3155757467537974
 30.5471000605837517 22.6774073799707914 21.0874343290050632
 30.5471000605837517 22.6774073799707914 23.8592929112563290
 30.5471000605837517 22.6774073799707914 26.6311514935075948
 28.2640889427411146 24.3361120489925291 15.5437171645025316
 28.2640889427411146 24.3361120489925291 18.3155757467537974
 28.2640889427411146 24.3361120489925291 21.0874343290050632
 28.2640889427411146 24.3361120489925291 23.8592929112563290
 28.2640889427411146 24.3361120489925291 26.6311514935075948
 25.9810778248984739 25.9948167180142669 15.5437171645025316
 25.9810778248984739 25.9948167180142669 18.3155757467537974
 25.9810778248984739 25.9948167180142669 21.0874343290050632
 25.9810778248984739 25.9948167180142669 23.8592929112563290
 25.9810778248984739 25.9948167180142669 26.6311514935075948
 23.6980667070558368 27.6535213870360010 15.5437171645025316
 23.6980667070558368 27.6535213870360010 18.3155757467537974
 23.6980667070558368 27.6535213870360010 21.0874343290050632
 23.6980667070558368 27.6535213870360010 23.8592929112563290
 23.6980667070558368 27.6535213870360010 26.6311514935075948
 21.4150555892131962 29.3122260560577388 15.5437171645025316
 21.4150555892131962 29.3122260560577388 18.3155757467537974
 21.4150555892131962 29.3122260560577388 21.0874343290050632
 21.4150555892131962 29.3122260560577388 23.8592929112563290
 21.4150555892131962 29.3122260560577388 26.6311514935075948
 19.1320444713705555 27.6535213870360010 15.5437171645025316
 19.1320444713705555 27.6535213870360010 18.3155757467537974
 19.1320444713705555 27.6535213870360010 21.0874343290050632
 19.1320444713705555 27.6535213870360010 23.8592929112563290
 19.1320444713705555 27.6535213870360010 26.6311514935075948
 16.8490333535279184 25.9948167180142669 15.5437171645025316
 16.8490333535279184 25.9948167180142669 18.3155757467537974
 16.8490333535279184 25.9948167180142669 21.0874343290050632
 16.8490333535279184 25.9948167180142669 23.8592929112563290
 16.8490333535279184 25.9948167180142669 26.6311514935075948
 14.5660222356852778 24.3361120489925327 15.5437171645025316
 14.5660222356852778 24.3361120489925327 18.3155757467537974
 14.5660222356852778 24.3361120489925327 21.0874343290050632
 14.5660222356852778 24.3361120489925327 23.8592929112563290
 14.5660222356852778 24.3361120489925327 26.6311514935075948
 12.2830111178426389 22.6774073799707949 15.5437171645025316
 12.2830111178426389 22.6774073799707949 18.3155757467537974
 12.2830111178426389 22.6774073799707949 21.0874343290050632
 12.2830111178426389 22.6774073799707949 23.8592929112563290
 12.2830111178426389 22.6774073799707949 26.6311514935075948
 13.1550437681646351 19.9935668481954814 15.5437171645025316
 13.1550437681646351 19.9935668481954814 18.3155757467537974
 13.1550437681646351 19.9935668481954814 21.0874343290050632
 13.1550437681646351 19.9935668481954814 23.8592929112563290
 13.1550437681646351 19.9935668481954814 26.6311514935075948
 14.0270764184866312 17.3097263164201678 15.5437171645025316
 14.0270764184866312 17.3097263164201678 18.3155757467537974
 14.0270764184866312 17.3097263164201678 21.0874343290050632
 14.0270764184866312 17.3097263164201678 23.8592929112563290
 14.0270764184866312 17.3097263164201678 26.6311514935075948
 14.8991090688086274 14.6258857846448542 15.5437171645025316
 14.8991090688086274 14.6258857846448542 18.3155757467537974
 14.8991090688086274 14.6258857846448542 21.0874343290050632
 14.8991090688086274 14.6258857846448542 23.8592929112563290
 14.8991090688086274 14.6258857846448542 26.6311514935075948
 15.7711417191306253 11.9420452528695407 15.5437171645025316
 15.7711417191306253 11.9420452528695407 18.3155757467537974
 15.7711417191306253 11.9420452528695407 21.0874343290050632
 15.7711417191306253 11.9420452528695407 23.8592929112563290
 15.7711417191306253 11.9420452528695407 26.6311514935075948
 18.5930986541719108 11.9420452528695407 15.5437171645025316
 18.5930986541719108 11.9420452528695407 18.3155757467537974
 18.5930986541719108 11.9420452528695407 21.0874343290050632
 18.5930986541719108 11.9420452528695407 23.8592929112563290
 18.5930986541719108 11.9420452528695407 26.6311514935075948
 21.4150555892131962 11.9420452528695407 15.5437171645025316
 21.4150555892131962 11.9420452528695407 18.3155757467537974
 21.4150555892131962 11.9420452528695407 21.0874343290050632
 21.4150555892131962 11.9420452528695407 23.8592929112563290
 21.4150555892131962 11.9420452528695407 26.6311514935075948
 24.2370125242544816 11.9420452528695389 15.5437171645025316
 24.2370125242544816 11.9420452528695389 18.3155757467537974
 24.2370125242544816 11.9420452528695389 21.0874343290050632
 24.2370125242544816 11.9420452528695389 23.8592929112563290
 24.2370125242544816 11.9420452528695389 26.6311514935075948
 27.0589694592957635 11.9420452528695389 15.5437171645025316
 27.0589694592957635 11.9420452528695389 18.3155757467537974
 27.0589694592957635 11.9420452528695389 21.0874343290050632
 27.0589694592957635 11.9420452528695389 23.8592929112563290
 27.0589694592957635 11.9420452528695389 26.6311514935075948
 27.9310021096177614 14.6258857846448507 15.5437171645025316
 27.9310021096177614 14.6258857846448507 18.3155757467537974
 27.9310021096177614 14.6258857846448507 21.0874343290050632
 27.9310021096177614 14.6258857846448507 23.8592929112563290
 27.9310021096177614 14.6258857846448507 26.6311514935075948
 28.8030347599397594 17.3097263164201678 15.5437171645025316
 28.8030347599397594 17.3097263164201678 18.3155757467537974
 28.8030347599397594 17.3097263164201678 21.0874343290050632
 28.8030347599397594 17.3097263164201678 23.8592929112563290
 28.8030347599397594 17.3097263164201678 26.6311514935075948
 29.6750674102617573 19.9935668481954778 15.5437171645025316
 29.6750674102617573 19.9935668481954778 18.3155757467537974
 29.6750674102617573 19.9935668481954778 21.0874343290050632
 29.6750674102617573 19.9935668481954778 23.8592929112563290
 29.6750674102617573 19.9935668481954778 26.6311514935075948
 32.8301111784263924 23.4192026588765714 16.9296464556281627
 32.8301111784263924 23.4192026588765714 19.7015050378794285
 32.8301111784263924 23.4192026588765714 22.4733636201306979
 32.8301111784263924 23.4192026588765714 25.2452222023819637
 30.5471000605837517 25.0779073278983091 16.9296464556281627
 30.5471000605837517 25.0779073278983091 19.7015050378794285
 30.5471000605837517 25.0779073278983091 22.4733636201306979
 30.5471000605837517 25.0779073278983091 25.2452222023819637
 28.2640889427411146 26.7366119969200433 16.9296464556281627
 28.2640889427411146 26.7366119969200433 19.7015050378794285
 28.2640889427411146 26.7366119969200433 22.4733636201306979
 28.2640889427411146 26.7366119969200433 25.2452222023819637
 25.9810778248984739 28.3953166659417775 16.9296464556281627
 25.9810778248984739 28.3953166659417775 19.7015050378794285
 25.9810778248984739 28.3953166659417775 22.4733636201306979
 25.9810778248984739 28.3953166659417775 25.2452222023819637
 23.6980667070558368 30.0540213349635152 16.9296464556281627
 23.6980667070558368 30.0540213349635152 19.7015050378794285
 23.6980667070558368 30.0540213349635152 22.4733636201306979
 23.6980667070558368 30.0540213349635152 25.2452222023819637
 21.4150555892131962 31.7127260039852530 16.9296464556281627
 21.4150555892131962 31.7127260039852530 19.7015050378794285
 21.4150555892131962 31.7127260039852530 22.4733636201306979
 21.4150555892131962 31.7127260039852530 25.2452222023819637
 19.1320444713705555 30.0540213349635152 16.9296464556281627
 19.1320444713705555 30.0540213349635152 19.7015050378794285
 19.1320444713705555 30.0540213349635152 22.4733636201306979
 19.1320444713705555 30.0540213349635152 25.2452222023819637
 16.8490333535279184 28.3953166659417811 16.9296464556281627
 16.8490333535279184 28.3953166659417811 19.7015050378794285
 16.8490333535279184 28.3953166659417811 22.4733636201306979
 16.8490333535279184 28.3953166659417811 25.2452222023819637
 14.5660222356852778 26.7366119969200469 16.9296464556281627
 14.5660222356852778 26.7366119969200469 19.7015050378794285
 14.5660222356852778 26.7366119969200469 22.4733636201306979
 14.5660222356852778 26.7366119969200469 25.2452222023819637
 12.2830111178426389 25.0779073278983091 16.9296464556281627
 12.2830111178426389 25.0779073278983091 19.7015050378794285
 12.2830111178426389 25.0779073278983091 22.4733636201306979
 12.2830111178426389 25.0779073278983091 25.2452222023819637
 10.0000000000000000 23.4192026588765749 16.9296464556281627
 10.0000000000000000 23.4192026588765749 19.7015050378794285
 10.0000000000000000 23.4192026588765749 22.4733636201306979
 10.0000000000000000 23.4192026588765749 25.2452222023819637
 10.8720326503219962 20.7353621271012614 16.9296464556281627
 10.8720326503219962 20.7353621271012614 19.7015050378794285
 10.8720326503219962 20.7353621271012614 22.4733636201306979
 10.8720326503219962 20.7353621271012614 25.2452222023819637
 11.7440653006439923 18.0515215953259478 16.9296464556281627
 11.7440653006439923 18.0515215953259478 19.7015050378794285
 11.7440653006439923 18.0515215953259478 22.4733636201306979
 11.7440653006439923 18.0515215953259478 25.2452222023819637
 12.6160979509659885 15.3676810635506342 16.9296464556281627
 12.6160979509659885 15.3676810635506342 19.7015050378794285
 12.6160979509659885 15.3676810635506342 22.4733636201306979
 12.6160979509659885 15.3676810635506342 25.2452222023819637
 13.4881306012879847 12.6838405317753207 16.9296464556281627
 13.4881306012879847 12.6838405317753207 19.7015050378794285
 13.4881306012879847 12.6838405317753207 22.4733636201306979
 13.4881306012879847 12.6838405317753207 25.2452222023819637
 14.3601632516099826 10.0000000000000071 16.9296464556281627
 14.3601632516099826 10.0000000000000071 19.7015050378794285
 14.3601632516099826 10.0000000000000071 22.4733636201306979
 14.3601632516099826 10.0000000000000071 25.2452222023819637
 17.1821201866512681 10.0000000000000053 16.9296464556281627
 17.1821201866512681 10.0000000000000053 19.7015050378794285
 17.1821201866512681 10.0000000000000053 22.4733636201306979
 17.1821201866512681 10.0000000000000053 25.2452222023819637
 20.0040771216925499 10.0000000000000053 16.9296464556281627
 20.0040771216925499 10.0000000000000053 19.7015050378794285
 20.0040771216925499 10.0000000000000053 22.4733636201306979
 20.0040771216925499 10.0000000000000053 25.2452222023819637
 22.8260340567338353 10.0000000000000036 16.9296464556281627
 22.8260340567338353 10.0000000000000036 19.7015050378794285
 22.8260340567338353 10.0000000000000036 22.4733636201306979
 22.8260340567338353 10.0000000000000036 25.2452222023819637
 25.6479909917751208 10.0000000000000036 16.9296464556281627
 25.6479909917751208 10.0000000000000036 19.7015050378794285
 25.6479909917751208 10.0000000000000036 22.4733636201306979
 25.6479909917751208 10.0000000000000036 25.2452222023819637
 28.4699479268164062 10.0000000000000036 16.9296464556281627
 28.4699479268164062 10.0000000000000036 19.7015050378794285
 28.4699479268164062 10.0000000000000036 22.4733636201306979
 28.4699479268164062 10.0000000000000036 25.2452222023819637
 29.3419805771384041 12.6838405317753171 16.9296464556281627
 29.3419805771384041 12.6838405317753171 19.7015050378794285
 29.3419805771384041 12.6838405317753171 22.4733636201306979
 29.3419805771384041 12.6838405317753171 25.2452222023819637
 30.2140132274604021 15.3676810635506307 16.9296464556281627
 30.2140132274604021 15.3676810635506307 19.7015050378794285
 30.2140132274604021 15.3676810635506307 22.4733636201306979
 30.2140132274604021 15.3676810635506307 25.2452222023819637
 31.0860458777823965 18.0515215953259442 16.9296464556281627
 31.0860458777823965 18.0515215953259442 19.7015050378794285
 31.0860458777823965 18.0515215953259442 22.4733636201306979
 31.0860458777823965 18.0515215953259442 25.2452222023819637
 31.9580785281043944 20.7353621271012578 16.9296464556281627
 31.9580785281043944 20.7353621271012578 19.7015050378794285
 31.9580785281043944 20.7353621271012578 22.4733636201306979
 31.9580785281043944 20.7353621271012578 25.2452222023819637
