Pt 
 1.0000000000000000
    24.5660222356852778    0.0000000000000000    0.0000000000000000
     0.0000000000000000   24.3425452007970478    0.0000000000000000
     0.0000000000000000    0.0000000000000000   33.8592929112563326
 Pt 
  31
Cartesian
 12.2830111178426389 11.9420452528695353 10.0000000000000000
 12.2830111178426389 11.9420452528695353 12.7718585822512676
 12.2830111178426389 11.9420452528695353 15.5437171645025334
 12.2830111178426389 11.9420452528695353 18.3155757467538010
 12.2830111178426389 11.9420452528695353 21.0874343290050668
 12.2830111178426389 11.9420452528695353 23.8592929112563326
 14.5660222356852778 12.6838405317753136 11.3859292911256347
 14.5660222356852778 12.6838405317753136 14.1577878733769005
 14.5660222356852778 12.6838405317753136 16.9296464556281663
 14.5660222356852778 12.6838405317753136 19.7015050378794321
 14.5660222356852778 12.6838405317753136 22.4733636201306979
 12.2830111178426389 14.3425452007970495 11.3859292911256347
 12.2830111178426389 14.3425452007970495 14.1577878733769005
 12.2830111178426389 14.3425452007970495 16.9296464556281663
 12.2830111178426389 14.3425452007970495 19.7015050378794321
 12.2830111178426389 14.3425452007970495 22.4733636201306979
 10.0000000000000000 12.6838405317753136 11.3859292911256347
 10.0000000000000000 12.6838405317753136 14.1577878733769005
 10.0000000000000000 12.6838405317753136 16.9296464556281663
 10.0000000000000000 12.6838405317753136 19.7015050378794321
 10.0000000000000000 12.6838405317753136 22.4733636201306979
 10.8720326503219962 10.0000000000000000 11.3859292911256347
 10.8720326503219962 10.0000000000000000 14.1577878733769005
 10.8720326503219962 10.0000000000000000 16.9296464556281663
 10.8720326503219962 10.0000000000000000 19.7015050378794321
 10.8720326503219962 10.0000000000000000 22.4733636201306979
 13.6939895853632816 10.0000000000000000 11.3859292911256347
 13.6939895853632816 10.0000000000000000 14.1577878733769005
 13.6939895853632816 10.0000000000000000 16.9296464556281663
 13.6939895853632816 10.0000000000000000 19.7015050378794321
 13.6939895853632816 10.0000000000000000 22.4733636201306979
