Au 
 1.0000000000000000
    48.5143429412182741    0.0000000000000000    0.0000000000000000
     0.0000000000000000   47.1187516621203528    0.0000000000000000
     0.0000000000000000    0.0000000000000000   43.0799653379289111
 Au 
 499
Cartesian
 24.2571714706091370 22.1278744362873034 10.0000000000000000
 24.2571714706091370 22.1278744362873034 12.8849956672411139
 24.2571714706091370 22.1278744362873034 15.7699913344822278
 24.2571714706091370 22.1278744362873034 18.6549870017233417
 24.2571714706091370 22.1278744362873034 21.5399826689644556
 24.2571714706091370 22.1278744362873034 24.4249783362055695
 24.2571714706091370 22.1278744362873034 27.3099740034466834
 24.2571714706091370 22.1278744362873034 30.1949696706877972
 24.2571714706091370 22.1278744362873034 33.0799653379289111
 26.6333667157106611 22.8999470735157651 11.4424978336205569
 26.6333667157106611 22.8999470735157651 14.3274935008616708
 26.6333667157106611 22.8999470735157651 17.2124891681027847
 26.6333667157106611 22.8999470735157651 20.0974848353438986
 26.6333667157106611 22.8999470735157651 22.9824805025850125
 26.6333667157106611 22.8999470735157651 25.8674761698261264
 26.6333667157106611 22.8999470735157651 28.7524718370672403
 26.6333667157106611 22.8999470735157651 31.6374675043083542
 24.2571714706091370 24.6263539739261432 11.4424978336205569
 24.2571714706091370 24.6263539739261432 14.3274935008616708
 24.2571714706091370 24.6263539739261432 17.2124891681027847
 24.2571714706091370 24.6263539739261432 20.0974848353438986
 24.2571714706091370 24.6263539739261432 22.9824805025850125
 24.2571714706091370 24.6263539739261432 25.8674761698261264
 24.2571714706091370 24.6263539739261432 28.7524718370672403
 24.2571714706091370 24.6263539739261432 31.6374675043083542
 21.8809762255076130 22.8999470735157651 11.4424978336205569
 21.8809762255076130 22.8999470735157651 14.3274935008616708
 21.8809762255076130 22.8999470735157651 17.2124891681027847
 21.8809762255076130 22.8999470735157651 20.0974848353438986
 21.8809762255076130 22.8999470735157651 22.9824805025850125
 21.8809762255076130 22.8999470735157651 25.8674761698261264
 21.8809762255076130 22.8999470735157651 28.7524718370672403
 21.8809762255076130 22.8999470735157651 31.6374675043083542
 22.7886020452305083 20.1065620302394201 11.4424978336205569
 22.7886020452305083 20.1065620302394201 14.3274935008616708
 22.7886020452305083 20.1065620302394201 17.2124891681027847
 22.7886020452305083 20.1065620302394201 20.0974848353438986
 22.7886020452305083 20.1065620302394201 22.9824805025850125
 22.7886020452305083 20.1065620302394201 25.8674761698261264
 22.7886020452305083 20.1065620302394201 28.7524718370672403
 22.7886020452305083 20.1065620302394201 31.6374675043083542
 25.7257408959877658 20.1065620302394201 11.4424978336205569
 25.7257408959877658 20.1065620302394201 14.3274935008616708
 25.7257408959877658 20.1065620302394201 17.2124891681027847
 25.7257408959877658 20.1065620302394201 20.0974848353438986
 25.7257408959877658 20.1065620302394201 22.9824805025850125
 25.7257408959877658 20.1065620302394201 25.8674761698261264
 25.7257408959877658 20.1065620302394201 28.7524718370672403
 25.7257408959877658 20.1065620302394201 31.6374675043083542
 29.0095619608121815 23.6720197107442303 12.8849956672411139
 29.0095619608121815 23.6720197107442303 15.7699913344822278
 29.0095619608121815 23.6720197107442303 18.6549870017233417
 29.0095619608121815 23.6720197107442303 21.5399826689644556
 29.0095619608121815 23.6720197107442303 24.4249783362055695
 29.0095619608121815 23.6720197107442303 27.3099740034466834
 29.0095619608121815 23.6720197107442303 30.1949696706877972
 26.6333667157106611 25.3984266111546084 12.8849956672411139
 26.6333667157106611 25.3984266111546084 15.7699913344822278
 26.6333667157106611 25.3984266111546084 18.6549870017233417
 26.6333667157106611 25.3984266111546084 21.5399826689644556
 26.6333667157106611 25.3984266111546084 24.4249783362055695
 26.6333667157106611 25.3984266111546084 27.3099740034466834
 26.6333667157106611 25.3984266111546084 30.1949696706877972
 24.2571714706091370 27.1248335115649866 12.8849956672411139
 24.2571714706091370 27.1248335115649866 15.7699913344822278
 24.2571714706091370 27.1248335115649866 18.6549870017233417
 24.2571714706091370 27.1248335115649866 21.5399826689644556
 24.2571714706091370 27.1248335115649866 24.4249783362055695
 24.2571714706091370 27.1248335115649866 27.3099740034466834
 24.2571714706091370 27.1248335115649866 30.1949696706877972
 21.8809762255076130 25.3984266111546084 12.8849956672411139
 21.8809762255076130 25.3984266111546084 15.7699913344822278
 21.8809762255076130 25.3984266111546084 18.6549870017233417
 21.8809762255076130 25.3984266111546084 21.5399826689644556
 21.8809762255076130 25.3984266111546084 24.4249783362055695
 21.8809762255076130 25.3984266111546084 27.3099740034466834
 21.8809762255076130 25.3984266111546084 30.1949696706877972
 19.5047809804060925 23.6720197107442303 12.8849956672411139
 19.5047809804060925 23.6720197107442303 15.7699913344822278
 19.5047809804060925 23.6720197107442303 18.6549870017233417
 19.5047809804060925 23.6720197107442303 21.5399826689644556
 19.5047809804060925 23.6720197107442303 24.4249783362055695
 19.5047809804060925 23.6720197107442303 27.3099740034466834
 19.5047809804060925 23.6720197107442303 30.1949696706877972
 20.4124068001289842 20.8786346674678818 12.8849956672411139
 20.4124068001289842 20.8786346674678818 15.7699913344822278
 20.4124068001289842 20.8786346674678818 18.6549870017233417
 20.4124068001289842 20.8786346674678818 21.5399826689644556
 20.4124068001289842 20.8786346674678818 24.4249783362055695
 20.4124068001289842 20.8786346674678818 27.3099740034466834
 20.4124068001289842 20.8786346674678818 30.1949696706877972
 21.3200326198518795 18.0852496241915368 12.8849956672411139
 21.3200326198518795 18.0852496241915368 15.7699913344822278
 21.3200326198518795 18.0852496241915368 18.6549870017233417
 21.3200326198518795 18.0852496241915368 21.5399826689644556
 21.3200326198518795 18.0852496241915368 24.4249783362055695
 21.3200326198518795 18.0852496241915368 27.3099740034466834
 21.3200326198518795 18.0852496241915368 30.1949696706877972
 24.2571714706091370 18.0852496241915333 12.8849956672411139
 24.2571714706091370 18.0852496241915333 15.7699913344822278
 24.2571714706091370 18.0852496241915333 18.6549870017233417
 24.2571714706091370 18.0852496241915333 21.5399826689644556
 24.2571714706091370 18.0852496241915333 24.4249783362055695
 24.2571714706091370 18.0852496241915333 27.3099740034466834
 24.2571714706091370 18.0852496241915333 30.1949696706877972
 27.1943103213663910 18.0852496241915333 12.8849956672411139
 27.1943103213663910 18.0852496241915333 15.7699913344822278
 27.1943103213663910 18.0852496241915333 18.6549870017233417
 27.1943103213663910 18.0852496241915333 21.5399826689644556
 27.1943103213663910 18.0852496241915333 24.4249783362055695
 27.1943103213663910 18.0852496241915333 27.3099740034466834
 27.1943103213663910 18.0852496241915333 30.1949696706877972
 28.1019361410892863 20.8786346674678818 12.8849956672411139
 28.1019361410892863 20.8786346674678818 15.7699913344822278
 28.1019361410892863 20.8786346674678818 18.6549870017233417
 28.1019361410892863 20.8786346674678818 21.5399826689644556
 28.1019361410892863 20.8786346674678818 24.4249783362055695
 28.1019361410892863 20.8786346674678818 27.3099740034466834
 28.1019361410892863 20.8786346674678818 30.1949696706877972
 31.3857572059137055 24.4440923479726919 14.3274935008616708
 31.3857572059137055 24.4440923479726919 17.2124891681027847
 31.3857572059137055 24.4440923479726919 20.0974848353438986
 31.3857572059137055 24.4440923479726919 22.9824805025850125
 31.3857572059137055 24.4440923479726919 25.8674761698261264
 31.3857572059137055 24.4440923479726919 28.7524718370672403
 29.0095619608121815 26.1704992483830701 14.3274935008616708
 29.0095619608121815 26.1704992483830701 17.2124891681027847
 29.0095619608121815 26.1704992483830701 20.0974848353438986
 29.0095619608121815 26.1704992483830701 22.9824805025850125
 29.0095619608121815 26.1704992483830701 25.8674761698261264
 29.0095619608121815 26.1704992483830701 28.7524718370672403
 26.6333667157106611 27.8969061487934482 14.3274935008616708
 26.6333667157106611 27.8969061487934482 17.2124891681027847
 26.6333667157106611 27.8969061487934482 20.0974848353438986
 26.6333667157106611 27.8969061487934482 22.9824805025850125
 26.6333667157106611 27.8969061487934482 25.8674761698261264
 26.6333667157106611 27.8969061487934482 28.7524718370672403
 24.2571714706091370 29.6233130492038299 14.3274935008616708
 24.2571714706091370 29.6233130492038299 17.2124891681027847
 24.2571714706091370 29.6233130492038299 20.0974848353438986
 24.2571714706091370 29.6233130492038299 22.9824805025850125
 24.2571714706091370 29.6233130492038299 25.8674761698261264
 24.2571714706091370 29.6233130492038299 28.7524718370672403
 21.8809762255076166 27.8969061487934482 14.3274935008616708
 21.8809762255076166 27.8969061487934482 17.2124891681027847
 21.8809762255076166 27.8969061487934482 20.0974848353438986
 21.8809762255076166 27.8969061487934482 22.9824805025850125
 21.8809762255076166 27.8969061487934482 25.8674761698261264
 21.8809762255076166 27.8969061487934482 28.7524718370672403
 19.5047809804060925 26.1704992483830736 14.3274935008616708
 19.5047809804060925 26.1704992483830736 17.2124891681027847
 19.5047809804060925 26.1704992483830736 20.0974848353438986
 19.5047809804060925 26.1704992483830736 22.9824805025850125
 19.5047809804060925 26.1704992483830736 25.8674761698261264
 19.5047809804060925 26.1704992483830736 28.7524718370672403
 17.1285857353045685 24.4440923479726919 14.3274935008616708
 17.1285857353045685 24.4440923479726919 17.2124891681027847
 17.1285857353045685 24.4440923479726919 20.0974848353438986
 17.1285857353045685 24.4440923479726919 22.9824805025850125
 17.1285857353045685 24.4440923479726919 25.8674761698261264
 17.1285857353045685 24.4440923479726919 28.7524718370672403
 18.0362115550274638 21.6507073046963470 14.3274935008616708
 18.0362115550274638 21.6507073046963470 17.2124891681027847
 18.0362115550274638 21.6507073046963470 20.0974848353438986
 18.0362115550274638 21.6507073046963470 22.9824805025850125
 18.0362115550274638 21.6507073046963470 25.8674761698261264
 18.0362115550274638 21.6507073046963470 28.7524718370672403
 18.9438373747503590 18.8573222614199985 14.3274935008616708
 18.9438373747503590 18.8573222614199985 17.2124891681027847
 18.9438373747503590 18.8573222614199985 20.0974848353438986
 18.9438373747503590 18.8573222614199985 22.9824805025850125
 18.9438373747503590 18.8573222614199985 25.8674761698261264
 18.9438373747503590 18.8573222614199985 28.7524718370672403
 19.8514631944732542 16.0639372181436499 14.3274935008616708
 19.8514631944732542 16.0639372181436499 17.2124891681027847
 19.8514631944732542 16.0639372181436499 20.0974848353438986
 19.8514631944732542 16.0639372181436499 22.9824805025850125
 19.8514631944732542 16.0639372181436499 25.8674761698261264
 19.8514631944732542 16.0639372181436499 28.7524718370672403
 22.7886020452305083 16.0639372181436499 14.3274935008616708
 22.7886020452305083 16.0639372181436499 17.2124891681027847
 22.7886020452305083 16.0639372181436499 20.0974848353438986
 22.7886020452305083 16.0639372181436499 22.9824805025850125
 22.7886020452305083 16.0639372181436499 25.8674761698261264
 22.7886020452305083 16.0639372181436499 28.7524718370672403
 25.7257408959877623 16.0639372181436499 14.3274935008616708
 25.7257408959877623 16.0639372181436499 17.2124891681027847
 25.7257408959877623 16.0639372181436499 20.0974848353438986
 25.7257408959877623 16.0639372181436499 22.9824805025850125
 25.7257408959877623 16.0639372181436499 25.8674761698261264
 25.7257408959877623 16.0639372181436499 28.7524718370672403
 28.6628797467450198 16.0639372181436499 14.3274935008616708
 28.6628797467450198 16.0639372181436499 17.2124891681027847
 28.6628797467450198 16.0639372181436499 20.0974848353438986
 28.6628797467450198 16.0639372181436499 22.9824805025850125
 28.6628797467450198 16.0639372181436499 25.8674761698261264
 28.6628797467450198 16.0639372181436499 28.7524718370672403
 29.5705055664679151 18.8573222614199985 14.3274935008616708
 29.5705055664679151 18.8573222614199985 17.2124891681027847
 29.5705055664679151 18.8573222614199985 20.0974848353438986
 29.5705055664679151 18.8573222614199985 22.9824805025850125
 29.5705055664679151 18.8573222614199985 25.8674761698261264
 29.5705055664679151 18.8573222614199985 28.7524718370672403
 30.4781313861908103 21.6507073046963434 14.3274935008616708
 30.4781313861908103 21.6507073046963434 17.2124891681027847
 30.4781313861908103 21.6507073046963434 20.0974848353438986
 30.4781313861908103 21.6507073046963434 22.9824805025850125
 30.4781313861908103 21.6507073046963434 25.8674761698261264
 30.4781313861908103 21.6507073046963434 28.7524718370672403
 33.7619524510152260 25.2161649852011536 15.7699913344822278
 33.7619524510152260 25.2161649852011536 18.6549870017233417
 33.7619524510152260 25.2161649852011536 21.5399826689644556
 33.7619524510152260 25.2161649852011536 24.4249783362055695
 33.7619524510152260 25.2161649852011536 27.3099740034466834
 31.3857572059137055 26.9425718856115317 15.7699913344822278
 31.3857572059137055 26.9425718856115317 18.6549870017233417
 31.3857572059137055 26.9425718856115317 21.5399826689644556
 31.3857572059137055 26.9425718856115317 24.4249783362055695
 31.3857572059137055 26.9425718856115317 27.3099740034466834
 29.0095619608121815 28.6689787860219099 15.7699913344822278
 29.0095619608121815 28.6689787860219099 18.6549870017233417
 29.0095619608121815 28.6689787860219099 21.5399826689644556
 29.0095619608121815 28.6689787860219099 24.4249783362055695
 29.0095619608121815 28.6689787860219099 27.3099740034466834
 26.6333667157106611 30.3953856864322915 15.7699913344822278
 26.6333667157106611 30.3953856864322915 18.6549870017233417
 26.6333667157106611 30.3953856864322915 21.5399826689644556
 26.6333667157106611 30.3953856864322915 24.4249783362055695
 26.6333667157106611 30.3953856864322915 27.3099740034466834
 24.2571714706091370 32.1217925868426732 15.7699913344822278
 24.2571714706091370 32.1217925868426732 18.6549870017233417
 24.2571714706091370 32.1217925868426732 21.5399826689644556
 24.2571714706091370 32.1217925868426732 24.4249783362055695
 24.2571714706091370 32.1217925868426732 27.3099740034466834
 21.8809762255076166 30.3953856864322915 15.7699913344822278
 21.8809762255076166 30.3953856864322915 18.6549870017233417
 21.8809762255076166 30.3953856864322915 21.5399826689644556
 21.8809762255076166 30.3953856864322915 24.4249783362055695
 21.8809762255076166 30.3953856864322915 27.3099740034466834
 19.5047809804060925 28.6689787860219134 15.7699913344822278
 19.5047809804060925 28.6689787860219134 18.6549870017233417
 19.5047809804060925 28.6689787860219134 21.5399826689644556
 19.5047809804060925 28.6689787860219134 24.4249783362055695
 19.5047809804060925 28.6689787860219134 27.3099740034466834
 17.1285857353045685 26.9425718856115353 15.7699913344822278
 17.1285857353045685 26.9425718856115353 18.6549870017233417
 17.1285857353045685 26.9425718856115353 21.5399826689644556
 17.1285857353045685 26.9425718856115353 24.4249783362055695
 17.1285857353045685 26.9425718856115353 27.3099740034466834
 14.7523904902030463 25.2161649852011571 15.7699913344822278
 14.7523904902030463 25.2161649852011571 18.6549870017233417
 14.7523904902030463 25.2161649852011571 21.5399826689644556
 14.7523904902030463 25.2161649852011571 24.4249783362055695
 14.7523904902030463 25.2161649852011571 27.3099740034466834
 15.6600163099259397 22.4227799419248086 15.7699913344822278
 15.6600163099259397 22.4227799419248086 18.6549870017233417
 15.6600163099259397 22.4227799419248086 21.5399826689644556
 15.6600163099259397 22.4227799419248086 24.4249783362055695
 15.6600163099259397 22.4227799419248086 27.3099740034466834
 16.5676421296488350 19.6293948986484637 15.7699913344822278
 16.5676421296488350 19.6293948986484637 18.6549870017233417
 16.5676421296488350 19.6293948986484637 21.5399826689644556
 16.5676421296488350 19.6293948986484637 24.4249783362055695
 16.5676421296488350 19.6293948986484637 27.3099740034466834
 17.4752679493717302 16.8360098553721151 15.7699913344822278
 17.4752679493717302 16.8360098553721151 18.6549870017233417
 17.4752679493717302 16.8360098553721151 21.5399826689644556
 17.4752679493717302 16.8360098553721151 24.4249783362055695
 17.4752679493717302 16.8360098553721151 27.3099740034466834
 18.3828937690946219 14.0426248120957684 15.7699913344822278
 18.3828937690946219 14.0426248120957684 18.6549870017233417
 18.3828937690946219 14.0426248120957684 21.5399826689644556
 18.3828937690946219 14.0426248120957684 24.4249783362055695
 18.3828937690946219 14.0426248120957684 27.3099740034466834
 21.3200326198518795 14.0426248120957666 15.7699913344822278
 21.3200326198518795 14.0426248120957666 18.6549870017233417
 21.3200326198518795 14.0426248120957666 21.5399826689644556
 21.3200326198518795 14.0426248120957666 24.4249783362055695
 21.3200326198518795 14.0426248120957666 27.3099740034466834
 24.2571714706091370 14.0426248120957666 15.7699913344822278
 24.2571714706091370 14.0426248120957666 18.6549870017233417
 24.2571714706091370 14.0426248120957666 21.5399826689644556
 24.2571714706091370 14.0426248120957666 24.4249783362055695
 24.2571714706091370 14.0426248120957666 27.3099740034466834
 27.1943103213663910 14.0426248120957666 15.7699913344822278
 27.1943103213663910 14.0426248120957666 18.6549870017233417
 27.1943103213663910 14.0426248120957666 21.5399826689644556
 27.1943103213663910 14.0426248120957666 24.4249783362055695
 27.1943103213663910 14.0426248120957666 27.3099740034466834
 30.1314491721236486 14.0426248120957666 15.7699913344822278
 30.1314491721236486 14.0426248120957666 18.6549870017233417
 30.1314491721236486 14.0426248120957666 21.5399826689644556
 30.1314491721236486 14.0426248120957666 24.4249783362055695
 30.1314491721236486 14.0426248120957666 27.3099740034466834
 31.0390749918465403 16.8360098553721116 15.7699913344822278
 31.0390749918465403 16.8360098553721116 18.6549870017233417
 31.0390749918465403 16.8360098553721116 21.5399826689644556
 31.0390749918465403 16.8360098553721116 24.4249783362055695
 31.0390749918465403 16.8360098553721116 27.3099740034466834
 31.9467008115694355 19.6293948986484601 15.7699913344822278
 31.9467008115694355 19.6293948986484601 18.6549870017233417
 31.9467008115694355 19.6293948986484601 21.5399826689644556
 31.9467008115694355 19.6293948986484601 24.4249783362055695
 31.9467008115694355 19.6293948986484601 27.3099740034466834
 32.8543266312923308 22.4227799419248086 15.7699913344822278
 32.8543266312923308 22.4227799419248086 18.6549870017233417
 32.8543266312923308 22.4227799419248086 21.5399826689644556
 32.8543266312923308 22.4227799419248086 24.4249783362055695
 32.8543266312923308 22.4227799419248086 27.3099740034466834
 36.1381476961167465 25.9882376224296152 17.2124891681027847
 36.1381476961167465 25.9882376224296152 20.0974848353438986
 36.1381476961167465 25.9882376224296152 22.9824805025850125
 36.1381476961167465 25.9882376224296152 25.8674761698261264
 33.7619524510152260 27.7146445228399969 17.2124891681027847
 33.7619524510152260 27.7146445228399969 20.0974848353438986
 33.7619524510152260 27.7146445228399969 22.9824805025850125
 33.7619524510152260 27.7146445228399969 25.8674761698261264
 31.3857572059137055 29.4410514232503751 17.2124891681027847
 31.3857572059137055 29.4410514232503751 20.0974848353438986
 31.3857572059137055 29.4410514232503751 22.9824805025850125
 31.3857572059137055 29.4410514232503751 25.8674761698261264
 29.0095619608121851 31.1674583236607532 17.2124891681027847
 29.0095619608121851 31.1674583236607532 20.0974848353438986
 29.0095619608121851 31.1674583236607532 22.9824805025850125
 29.0095619608121851 31.1674583236607532 25.8674761698261264
 26.6333667157106611 32.8938652240711349 17.2124891681027847
 26.6333667157106611 32.8938652240711349 20.0974848353438986
 26.6333667157106611 32.8938652240711349 22.9824805025850125
 26.6333667157106611 32.8938652240711349 25.8674761698261264
 24.2571714706091370 34.6202721244815095 17.2124891681027847
 24.2571714706091370 34.6202721244815095 20.0974848353438986
 24.2571714706091370 34.6202721244815095 22.9824805025850125
 24.2571714706091370 34.6202721244815095 25.8674761698261264
 21.8809762255076166 32.8938652240711349 17.2124891681027847
 21.8809762255076166 32.8938652240711349 20.0974848353438986
 21.8809762255076166 32.8938652240711349 22.9824805025850125
 21.8809762255076166 32.8938652240711349 25.8674761698261264
 19.5047809804060925 31.1674583236607532 17.2124891681027847
 19.5047809804060925 31.1674583236607532 20.0974848353438986
 19.5047809804060925 31.1674583236607532 22.9824805025850125
 19.5047809804060925 31.1674583236607532 25.8674761698261264
 17.1285857353045685 29.4410514232503786 17.2124891681027847
 17.1285857353045685 29.4410514232503786 20.0974848353438986
 17.1285857353045685 29.4410514232503786 22.9824805025850125
 17.1285857353045685 29.4410514232503786 25.8674761698261264
 14.7523904902030463 27.7146445228399969 17.2124891681027847
 14.7523904902030463 27.7146445228399969 20.0974848353438986
 14.7523904902030463 27.7146445228399969 22.9824805025850125
 14.7523904902030463 27.7146445228399969 25.8674761698261264
 12.3761952451015240 25.9882376224296188 17.2124891681027847
 12.3761952451015240 25.9882376224296188 20.0974848353438986
 12.3761952451015240 25.9882376224296188 22.9824805025850125
 12.3761952451015240 25.9882376224296188 25.8674761698261264
 13.2838210648244175 23.1948525791532738 17.2124891681027847
 13.2838210648244175 23.1948525791532738 20.0974848353438986
 13.2838210648244175 23.1948525791532738 22.9824805025850125
 13.2838210648244175 23.1948525791532738 25.8674761698261264
 14.1914468845473110 20.4014675358769253 17.2124891681027847
 14.1914468845473110 20.4014675358769253 20.0974848353438986
 14.1914468845473110 20.4014675358769253 22.9824805025850125
 14.1914468845473110 20.4014675358769253 25.8674761698261264
 15.0990727042702062 17.6080824926005803 17.2124891681027847
 15.0990727042702062 17.6080824926005803 20.0974848353438986
 15.0990727042702062 17.6080824926005803 22.9824805025850125
 15.0990727042702062 17.6080824926005803 25.8674761698261264
 16.0066985239931014 14.8146974493242318 17.2124891681027847
 16.0066985239931014 14.8146974493242318 20.0974848353438986
 16.0066985239931014 14.8146974493242318 22.9824805025850125
 16.0066985239931014 14.8146974493242318 25.8674761698261264
 16.9143243437159967 12.0213124060478851 17.2124891681027847
 16.9143243437159967 12.0213124060478851 20.0974848353438986
 16.9143243437159967 12.0213124060478851 22.9824805025850125
 16.9143243437159967 12.0213124060478851 25.8674761698261264
 19.8514631944732507 12.0213124060478833 17.2124891681027847
 19.8514631944732507 12.0213124060478833 20.0974848353438986
 19.8514631944732507 12.0213124060478833 22.9824805025850125
 19.8514631944732507 12.0213124060478833 25.8674761698261264
 22.7886020452305083 12.0213124060478833 17.2124891681027847
 22.7886020452305083 12.0213124060478833 20.0974848353438986
 22.7886020452305083 12.0213124060478833 22.9824805025850125
 22.7886020452305083 12.0213124060478833 25.8674761698261264
 25.7257408959877623 12.0213124060478833 17.2124891681027847
 25.7257408959877623 12.0213124060478833 20.0974848353438986
 25.7257408959877623 12.0213124060478833 22.9824805025850125
 25.7257408959877623 12.0213124060478833 25.8674761698261264
 28.6628797467450198 12.0213124060478833 17.2124891681027847
 28.6628797467450198 12.0213124060478833 20.0974848353438986
 28.6628797467450198 12.0213124060478833 22.9824805025850125
 28.6628797467450198 12.0213124060478833 25.8674761698261264
 31.6000185975022774 12.0213124060478833 17.2124891681027847
 31.6000185975022774 12.0213124060478833 20.0974848353438986
 31.6000185975022774 12.0213124060478833 22.9824805025850125
 31.6000185975022774 12.0213124060478833 25.8674761698261264
 32.5076444172251726 14.8146974493242283 17.2124891681027847
 32.5076444172251726 14.8146974493242283 20.0974848353438986
 32.5076444172251726 14.8146974493242283 22.9824805025850125
 32.5076444172251726 14.8146974493242283 25.8674761698261264
 33.4152702369480608 17.6080824926005768 17.2124891681027847
 33.4152702369480608 17.6080824926005768 20.0974848353438986
 33.4152702369480608 17.6080824926005768 22.9824805025850125
 33.4152702369480608 17.6080824926005768 25.8674761698261264
 34.3228960566709631 20.4014675358769217 17.2124891681027847
 34.3228960566709631 20.4014675358769217 20.0974848353438986
 34.3228960566709631 20.4014675358769217 22.9824805025850125
 34.3228960566709631 20.4014675358769217 25.8674761698261264
 35.2305218763938512 23.1948525791532703 17.2124891681027847
 35.2305218763938512 23.1948525791532703 20.0974848353438986
 35.2305218763938512 23.1948525791532703 22.9824805025850125
 35.2305218763938512 23.1948525791532703 25.8674761698261264
 38.5143429412182741 26.7603102596580769 18.6549870017233417
 38.5143429412182741 26.7603102596580769 21.5399826689644556
 38.5143429412182741 26.7603102596580769 24.4249783362055695
 36.1381476961167465 28.4867171600684586 18.6549870017233417
 36.1381476961167465 28.4867171600684586 21.5399826689644556
 36.1381476961167465 28.4867171600684586 24.4249783362055695
 33.7619524510152260 30.2131240604788367 18.6549870017233417
 33.7619524510152260 30.2131240604788367 21.5399826689644556
 33.7619524510152260 30.2131240604788367 24.4249783362055695
 31.3857572059137055 31.9395309608892148 18.6549870017233417
 31.3857572059137055 31.9395309608892148 21.5399826689644556
 31.3857572059137055 31.9395309608892148 24.4249783362055695
 29.0095619608121851 33.6659378612995965 18.6549870017233417
 29.0095619608121851 33.6659378612995965 21.5399826689644556
 29.0095619608121851 33.6659378612995965 24.4249783362055695
 26.6333667157106611 35.3923447617099782 18.6549870017233417
 26.6333667157106611 35.3923447617099782 21.5399826689644556
 26.6333667157106611 35.3923447617099782 24.4249783362055695
 24.2571714706091370 37.1187516621203528 18.6549870017233417
 24.2571714706091370 37.1187516621203528 21.5399826689644556
 24.2571714706091370 37.1187516621203528 24.4249783362055695
 21.8809762255076166 35.3923447617099782 18.6549870017233417
 21.8809762255076166 35.3923447617099782 21.5399826689644556
 21.8809762255076166 35.3923447617099782 24.4249783362055695
 19.5047809804060925 33.6659378612995965 18.6549870017233417
 19.5047809804060925 33.6659378612995965 21.5399826689644556
 19.5047809804060925 33.6659378612995965 24.4249783362055695
 17.1285857353045685 31.9395309608892184 18.6549870017233417
 17.1285857353045685 31.9395309608892184 21.5399826689644556
 17.1285857353045685 31.9395309608892184 24.4249783362055695
 14.7523904902030463 30.2131240604788402 18.6549870017233417
 14.7523904902030463 30.2131240604788402 21.5399826689644556
 14.7523904902030463 30.2131240604788402 24.4249783362055695
 12.3761952451015240 28.4867171600684621 18.6549870017233417
 12.3761952451015240 28.4867171600684621 21.5399826689644556
 12.3761952451015240 28.4867171600684621 24.4249783362055695
 10.0000000000000000 26.7603102596580840 18.6549870017233417
 10.0000000000000000 26.7603102596580840 21.5399826689644556
 10.0000000000000000 26.7603102596580840 24.4249783362055695
 10.9076258197228952 23.9669252163817355 18.6549870017233417
 10.9076258197228952 23.9669252163817355 21.5399826689644556
 10.9076258197228952 23.9669252163817355 24.4249783362055695
 11.8152516394457905 21.1735401731053905 18.6549870017233417
 11.8152516394457905 21.1735401731053905 21.5399826689644556
 11.8152516394457905 21.1735401731053905 24.4249783362055695
 12.7228774591686840 18.3801551298290420 18.6549870017233417
 12.7228774591686840 18.3801551298290420 21.5399826689644556
 12.7228774591686840 18.3801551298290420 24.4249783362055695
 13.6305032788915774 15.5867700865526952 18.6549870017233417
 13.6305032788915774 15.5867700865526952 21.5399826689644556
 13.6305032788915774 15.5867700865526952 24.4249783362055695
 14.5381290986144727 12.7933850432763485 18.6549870017233417
 14.5381290986144727 12.7933850432763485 21.5399826689644556
 14.5381290986144727 12.7933850432763485 24.4249783362055695
 15.4457549183373679 10.0000000000000000 18.6549870017233417
 15.4457549183373679 10.0000000000000000 21.5399826689644556
 15.4457549183373679 10.0000000000000000 24.4249783362055695
 18.3828937690946219 10.0000000000000000 18.6549870017233417
 18.3828937690946219 10.0000000000000000 21.5399826689644556
 18.3828937690946219 10.0000000000000000 24.4249783362055695
 21.3200326198518795 10.0000000000000000 18.6549870017233417
 21.3200326198518795 10.0000000000000000 21.5399826689644556
 21.3200326198518795 10.0000000000000000 24.4249783362055695
 24.2571714706091370 10.0000000000000000 18.6549870017233417
 24.2571714706091370 10.0000000000000000 21.5399826689644556
 24.2571714706091370 10.0000000000000000 24.4249783362055695
 27.1943103213663910 10.0000000000000000 18.6549870017233417
 27.1943103213663910 10.0000000000000000 21.5399826689644556
 27.1943103213663910 10.0000000000000000 24.4249783362055695
 30.1314491721236450 10.0000000000000000 18.6549870017233417
 30.1314491721236450 10.0000000000000000 21.5399826689644556
 30.1314491721236450 10.0000000000000000 24.4249783362055695
 33.0685880228809026  9.9999999999999982 18.6549870017233417
 33.0685880228809026  9.9999999999999982 21.5399826689644556
 33.0685880228809026  9.9999999999999982 24.4249783362055695
 33.9762138426037978 12.7933850432763450 18.6549870017233417
 33.9762138426037978 12.7933850432763450 21.5399826689644556
 33.9762138426037978 12.7933850432763450 24.4249783362055695