Pt 
 1.0000000000000000
    38.8630699490366283    0.0000000000000000    0.0000000000000000
     0.0000000000000000   38.8630699490366283    0.0000000000000000
     0.0000000000000000    0.0000000000000000   38.8630699490366283
 Pt 
 309
Cartesian
 19.4315349745183141 19.4315349745183141 19.4315349745183141
 21.7894187181478927 19.4315349745183141 17.9742826794343920
 21.7894187181478927 19.4315349745183141 20.8887872696022363
 17.0736512308887356 19.4315349745183141 17.9742826794343920
 17.0736512308887356 19.4315349745183141 20.8887872696022363
 17.9742826794343920 21.7894187181478927 19.4315349745183141
 20.8887872696022363 21.7894187181478927 19.4315349745183141
 17.9742826794343920 17.0736512308887356 19.4315349745183141
 20.8887872696022363 17.0736512308887356 19.4315349745183141
 19.4315349745183141 17.9742826794343920 21.7894187181478927
 19.4315349745183141 20.8887872696022363 21.7894187181478927
 19.4315349745183141 17.9742826794343920 17.0736512308887356
 19.4315349745183141 20.8887872696022363 17.0736512308887356
 24.1473024617774712 19.4315349745183141 16.5170303843504698
 24.1473024617774712 19.4315349745183141 19.4315349745183141
 24.1473024617774712 19.4315349745183141 22.3460395646861585
 14.7157674872591571 19.4315349745183141 16.5170303843504698
 14.7157674872591571 19.4315349745183141 19.4315349745183141
 14.7157674872591571 19.4315349745183141 22.3460395646861585
 16.5170303843504698 24.1473024617774712 19.4315349745183141
 19.4315349745183141 24.1473024617774712 19.4315349745183141
 22.3460395646861585 24.1473024617774712 19.4315349745183141
 16.5170303843504698 14.7157674872591571 19.4315349745183141
 19.4315349745183141 14.7157674872591571 19.4315349745183141
 22.3460395646861585 14.7157674872591571 19.4315349745183141
 19.4315349745183141 16.5170303843504698 24.1473024617774712
 19.4315349745183141 19.4315349745183141 24.1473024617774712
 19.4315349745183141 22.3460395646861585 24.1473024617774712
 19.4315349745183141 16.5170303843504698 14.7157674872591571
 19.4315349745183141 19.4315349745183141 14.7157674872591571
 19.4315349745183141 22.3460395646861585 14.7157674872591571
 21.7894187181478927 17.9742826794343920 23.2466710132318148
 21.7894187181478927 20.8887872696022363 23.2466710132318148
 21.7894187181478927 17.9742826794343920 15.6163989358048116
 21.7894187181478927 20.8887872696022363 15.6163989358048116
 17.0736512308887356 17.9742826794343920 23.2466710132318148
 17.0736512308887356 20.8887872696022363 23.2466710132318148
 17.0736512308887356 17.9742826794343920 15.6163989358048116
 17.0736512308887356 20.8887872696022363 15.6163989358048116
 23.2466710132318148 21.7894187181478927 17.9742826794343920
 23.2466710132318148 21.7894187181478927 20.8887872696022363
 15.6163989358048116 21.7894187181478927 17.9742826794343920
 15.6163989358048116 21.7894187181478927 20.8887872696022363
 23.2466710132318148 17.0736512308887356 17.9742826794343920
 23.2466710132318148 17.0736512308887356 20.8887872696022363
 15.6163989358048116 17.0736512308887356 17.9742826794343920
 15.6163989358048116 17.0736512308887356 20.8887872696022363
 17.9742826794343920 23.2466710132318148 21.7894187181478927
 20.8887872696022363 23.2466710132318148 21.7894187181478927
 17.9742826794343920 15.6163989358048116 21.7894187181478927
 20.8887872696022363 15.6163989358048116 21.7894187181478927
 17.9742826794343920 23.2466710132318148 17.0736512308887356
 20.8887872696022363 23.2466710132318148 17.0736512308887356
 17.9742826794343920 15.6163989358048116 17.0736512308887356
 20.8887872696022363 15.6163989358048116 17.0736512308887356
 26.5051862054070497 19.4315349745183141 15.0597780892665440
 26.5051862054070497 19.4315349745183141 17.9742826794343920
 26.5051862054070497 19.4315349745183141 20.8887872696022363
 26.5051862054070497 19.4315349745183141 23.8032918597700842
 12.3578837436295785 19.4315349745183141 15.0597780892665440
 12.3578837436295785 19.4315349745183141 17.9742826794343920
 12.3578837436295785 19.4315349745183141 20.8887872696022363
 12.3578837436295785 19.4315349745183141 23.8032918597700842
 15.0597780892665440 26.5051862054070497 19.4315349745183141
 17.9742826794343920 26.5051862054070497 19.4315349745183141
 20.8887872696022363 26.5051862054070497 19.4315349745183141
 23.8032918597700842 26.5051862054070497 19.4315349745183141
 15.0597780892665440 12.3578837436295785 19.4315349745183141
 17.9742826794343920 12.3578837436295785 19.4315349745183141
 20.8887872696022363 12.3578837436295785 19.4315349745183141
 23.8032918597700842 12.3578837436295785 19.4315349745183141
 19.4315349745183141 15.0597780892665440 26.5051862054070497
 19.4315349745183141 17.9742826794343920 26.5051862054070497
 19.4315349745183141 20.8887872696022363 26.5051862054070497
 19.4315349745183141 23.8032918597700842 26.5051862054070497
 19.4315349745183141 15.0597780892665440 12.3578837436295785
 19.4315349745183141 17.9742826794343920 12.3578837436295785
 19.4315349745183141 20.8887872696022363 12.3578837436295785
 19.4315349745183141 23.8032918597700842 12.3578837436295785
 24.1473024617774712 17.9742826794343920 24.7039233083157370
 21.7894187181478927 16.5170303843504698 25.6045547568613969
 24.1473024617774712 20.8887872696022363 24.7039233083157370
 21.7894187181478927 19.4315349745183141 25.6045547568613969
 21.7894187181478927 22.3460395646861585 25.6045547568613969
 24.1473024617774712 17.9742826794343920 14.1591466407208895
 21.7894187181478927 16.5170303843504698 13.2585151921752331
 24.1473024617774712 20.8887872696022363 14.1591466407208895
 21.7894187181478927 19.4315349745183141 13.2585151921752331
 21.7894187181478927 22.3460395646861585 13.2585151921752331
 14.7157674872591571 17.9742826794343920 24.7039233083157370
 17.0736512308887356 16.5170303843504698 25.6045547568613969
 14.7157674872591571 20.8887872696022363 24.7039233083157370
 17.0736512308887356 19.4315349745183141 25.6045547568613969
 17.0736512308887356 22.3460395646861585 25.6045547568613969
 14.7157674872591571 17.9742826794343920 14.1591466407208895
 17.0736512308887356 16.5170303843504698 13.2585151921752331
 14.7157674872591571 20.8887872696022363 14.1591466407208895
 17.0736512308887356 19.4315349745183141 13.2585151921752331
 17.0736512308887356 22.3460395646861585 13.2585151921752331
 24.7039233083157370 24.1473024617774712 17.9742826794343920
 25.6045547568613969 21.7894187181478927 16.5170303843504698
 24.7039233083157370 24.1473024617774712 20.8887872696022363
 25.6045547568613969 21.7894187181478927 19.4315349745183141
 25.6045547568613969 21.7894187181478927 22.3460395646861585
 14.1591466407208895 24.1473024617774712 17.9742826794343920
 13.2585151921752331 21.7894187181478927 16.5170303843504698
 14.1591466407208895 24.1473024617774712 20.8887872696022363
 13.2585151921752331 21.7894187181478927 19.4315349745183141
 13.2585151921752331 21.7894187181478927 22.3460395646861585
 24.7039233083157370 14.7157674872591571 17.9742826794343920
 25.6045547568613969 17.0736512308887356 16.5170303843504698
 24.7039233083157370 14.7157674872591571 20.8887872696022363
 25.6045547568613969 17.0736512308887356 19.4315349745183141
 25.6045547568613969 17.0736512308887356 22.3460395646861585
 14.1591466407208895 14.7157674872591571 17.9742826794343920
 13.2585151921752331 17.0736512308887356 16.5170303843504698
 14.1591466407208895 14.7157674872591571 20.8887872696022363
 13.2585151921752331 17.0736512308887356 19.4315349745183141
 13.2585151921752331 17.0736512308887356 22.3460395646861585
 17.9742826794343920 24.7039233083157370 24.1473024617774712
 16.5170303843504698 25.6045547568613969 21.7894187181478927
 20.8887872696022363 24.7039233083157370 24.1473024617774712
 19.4315349745183141 25.6045547568613969 21.7894187181478927
 22.3460395646861585 25.6045547568613969 21.7894187181478927
 17.9742826794343920 14.1591466407208895 24.1473024617774712
 16.5170303843504698 13.2585151921752331 21.7894187181478927
 20.8887872696022363 14.1591466407208895 24.1473024617774712
 19.4315349745183141 13.2585151921752331 21.7894187181478927
 22.3460395646861585 13.2585151921752331 21.7894187181478927
 17.9742826794343920 24.7039233083157370 14.7157674872591571
 16.5170303843504698 25.6045547568613969 17.0736512308887356
 20.8887872696022363 24.7039233083157370 14.7157674872591571
 19.4315349745183141 25.6045547568613969 17.0736512308887356
 22.3460395646861585 25.6045547568613969 17.0736512308887356
 17.9742826794343920 14.1591466407208895 14.7157674872591571
 16.5170303843504698 13.2585151921752331 17.0736512308887356
 20.8887872696022363 14.1591466407208895 14.7157674872591571
 19.4315349745183141 13.2585151921752331 17.0736512308887356
 22.3460395646861585 13.2585151921752331 17.0736512308887356
 23.2466710132318148 15.6163989358048116 23.2466710132318148
 23.2466710132318148 23.2466710132318148 23.2466710132318148
 23.2466710132318148 15.6163989358048116 15.6163989358048116
 23.2466710132318148 23.2466710132318148 15.6163989358048116
 15.6163989358048116 15.6163989358048116 23.2466710132318148
 15.6163989358048116 23.2466710132318148 23.2466710132318148
 15.6163989358048116 15.6163989358048116 15.6163989358048116
 15.6163989358048116 23.2466710132318148 15.6163989358048116
 28.8630699490366283 19.4315349745183141 13.6025257941826219
 28.8630699490366283 19.4315349745183141 16.5170303843504698
 28.8630699490366283 19.4315349745183141 19.4315349745183141
 28.8630699490366283 19.4315349745183141 22.3460395646861585
 28.8630699490366283 19.4315349745183141 25.2605441548540064
  9.9999999999999982 19.4315349745183141 13.6025257941826219
  9.9999999999999982 19.4315349745183141 16.5170303843504698
  9.9999999999999982 19.4315349745183141 19.4315349745183141
  9.9999999999999982 19.4315349745183141 22.3460395646861585
  9.9999999999999982 19.4315349745183141 25.2605441548540064
 13.6025257941826219 28.8630699490366283 19.4315349745183141
 16.5170303843504698 28.8630699490366283 19.4315349745183141
 19.4315349745183141 28.8630699490366283 19.4315349745183141
 22.3460395646861585 28.8630699490366283 19.4315349745183141
 25.2605441548540064 28.8630699490366283 19.4315349745183141
 13.6025257941826219  9.9999999999999982 19.4315349745183141
 16.5170303843504698  9.9999999999999982 19.4315349745183141
 19.4315349745183141  9.9999999999999982 19.4315349745183141
 22.3460395646861585  9.9999999999999982 19.4315349745183141
 25.2605441548540064  9.9999999999999982 19.4315349745183141
 19.4315349745183141 13.6025257941826219 28.8630699490366283
 19.4315349745183141 16.5170303843504698 28.8630699490366283
 19.4315349745183141 19.4315349745183141 28.8630699490366283
 19.4315349745183141 22.3460395646861585 28.8630699490366283
 19.4315349745183141 25.2605441548540064 28.8630699490366283
 19.4315349745183141 13.6025257941826219  9.9999999999999982
 19.4315349745183141 16.5170303843504698  9.9999999999999982
 19.4315349745183141 19.4315349745183141  9.9999999999999982
 19.4315349745183141 22.3460395646861585  9.9999999999999982
 19.4315349745183141 25.2605441548540064  9.9999999999999982
 26.5051862054070497 17.9742826794343920 26.1611756033996627
 24.1473024617774712 16.5170303843504698 27.0618070519453191
 21.7894187181478927 15.0597780892665440 27.9624385004909755
 26.5051862054070497 20.8887872696022363 26.1611756033996627
 24.1473024617774712 19.4315349745183141 27.0618070519453191
 21.7894187181478927 17.9742826794343920 27.9624385004909755
 24.1473024617774712 22.3460395646861585 27.0618070519453191
 21.7894187181478927 20.8887872696022363 27.9624385004909755
 21.7894187181478927 23.8032918597700842 27.9624385004909755
 26.5051862054070497 17.9742826794343920 12.7018943456369655
 24.1473024617774712 16.5170303843504698 11.8012628970913092
 21.7894187181478927 15.0597780892665440 10.9006314485456546
 26.5051862054070497 20.8887872696022363 12.7018943456369655
 24.1473024617774712 19.4315349745183141 11.8012628970913092
 21.7894187181478927 17.9742826794343920 10.9006314485456546
 24.1473024617774712 22.3460395646861585 11.8012628970913092
 21.7894187181478927 20.8887872696022363 10.9006314485456546
 21.7894187181478927 23.8032918597700842 10.9006314485456546
 12.3578837436295785 17.9742826794343920 26.1611756033996627
 14.7157674872591571 16.5170303843504698 27.0618070519453191
 17.0736512308887356 15.0597780892665440 27.9624385004909755
 12.3578837436295785 20.8887872696022363 26.1611756033996627
 14.7157674872591571 19.4315349745183141 27.0618070519453191
 17.0736512308887356 17.9742826794343920 27.9624385004909755
 14.7157674872591571 22.3460395646861585 27.0618070519453191
 17.0736512308887356 20.8887872696022363 27.9624385004909755
 17.0736512308887356 23.8032918597700842 27.9624385004909755
 12.3578837436295785 17.9742826794343920 12.7018943456369655
 14.7157674872591571 16.5170303843504698 11.8012628970913092
 17.0736512308887356 15.0597780892665440 10.9006314485456546
 12.3578837436295785 20.8887872696022363 12.7018943456369655
 14.7157674872591571 19.4315349745183141 11.8012628970913092
 17.0736512308887356 17.9742826794343920 10.9006314485456546
 14.7157674872591571 22.3460395646861585 11.8012628970913092
 17.0736512308887356 20.8887872696022363 10.9006314485456546
 17.0736512308887356 23.8032918597700842 10.9006314485456546
 26.1611756033996627 26.5051862054070497 17.9742826794343920
 27.0618070519453191 24.1473024617774712 16.5170303843504698
 27.9624385004909755 21.7894187181478927 15.0597780892665440
 26.1611756033996627 26.5051862054070497 20.8887872696022363
 27.0618070519453191 24.1473024617774712 19.4315349745183141
 27.9624385004909755 21.7894187181478927 17.9742826794343920
 27.0618070519453191 24.1473024617774712 22.3460395646861585
 27.9624385004909755 21.7894187181478927 20.8887872696022363
 27.9624385004909755 21.7894187181478927 23.8032918597700842
 12.7018943456369655 26.5051862054070497 17.9742826794343920
 11.8012628970913092 24.1473024617774712 16.5170303843504698
 10.9006314485456546 21.7894187181478927 15.0597780892665440
 12.7018943456369655 26.5051862054070497 20.8887872696022363
 11.8012628970913092 24.1473024617774712 19.4315349745183141
 10.9006314485456546 21.7894187181478927 17.9742826794343920
 11.8012628970913092 24.1473024617774712 22.3460395646861585
 10.9006314485456546 21.7894187181478927 20.8887872696022363
 10.9006314485456546 21.7894187181478927 23.8032918597700842
 26.1611756033996627 12.3578837436295785 17.9742826794343920
 27.0618070519453191 14.7157674872591571 16.5170303843504698
 27.9624385004909755 17.0736512308887356 15.0597780892665440
 26.1611756033996627 12.3578837436295785 20.8887872696022363
 27.0618070519453191 14.7157674872591571 19.4315349745183141
 27.9624385004909755 17.0736512308887356 17.9742826794343920
 27.0618070519453191 14.7157674872591571 22.3460395646861585
 27.9624385004909755 17.0736512308887356 20.8887872696022363
 27.9624385004909755 17.0736512308887356 23.8032918597700842
 12.7018943456369655 12.3578837436295785 17.9742826794343920
 11.8012628970913092 14.7157674872591571 16.5170303843504698
 10.9006314485456546 17.0736512308887356 15.0597780892665440
 12.7018943456369655 12.3578837436295785 20.8887872696022363
 11.8012628970913092 14.7157674872591571 19.4315349745183141
 10.9006314485456546 17.0736512308887356 17.9742826794343920
 11.8012628970913092 14.7157674872591571 22.3460395646861585
 10.9006314485456546 17.0736512308887356 20.8887872696022363
 10.9006314485456546 17.0736512308887356 23.8032918597700842
 17.9742826794343920 26.1611756033996627 26.5051862054070497
 16.5170303843504698 27.0618070519453191 24.1473024617774712
 15.0597780892665440 27.9624385004909755 21.7894187181478927
 20.8887872696022363 26.1611756033996627 26.5051862054070497
 19.4315349745183141 27.0618070519453191 24.1473024617774712
 17.9742826794343920 27.9624385004909755 21.7894187181478927
 22.3460395646861585 27.0618070519453191 24.1473024617774712
 20.8887872696022363 27.9624385004909755 21.7894187181478927
 23.8032918597700842 27.9624385004909755 21.7894187181478927
 17.9742826794343920 12.7018943456369655 26.5051862054070497
 16.5170303843504698 11.8012628970913092 24.1473024617774712
 15.0597780892665440 10.9006314485456546 21.7894187181478927
 20.8887872696022363 12.7018943456369655 26.5051862054070497
 19.4315349745183141 11.8012628970913092 24.1473024617774712
 17.9742826794343920 10.9006314485456546 21.7894187181478927
 22.3460395646861585 11.8012628970913092 24.1473024617774712
 20.8887872696022363 10.9006314485456546 21.7894187181478927
 23.8032918597700842 10.9006314485456546 21.7894187181478927
 17.9742826794343920 26.1611756033996627 12.3578837436295785
 16.5170303843504698 27.0618070519453191 14.7157674872591571
 15.0597780892665440 27.9624385004909755 17.0736512308887356
 20.8887872696022363 26.1611756033996627 12.3578837436295785
 19.4315349745183141 27.0618070519453191 14.7157674872591571
 17.9742826794343920 27.9624385004909755 17.0736512308887356
 22.3460395646861585 27.0618070519453191 14.7157674872591571
 20.8887872696022363 27.9624385004909755 17.0736512308887356
 23.8032918597700842 27.9624385004909755 17.0736512308887356
 17.9742826794343920 12.7018943456369655 12.3578837436295785
 16.5170303843504698 11.8012628970913092 14.7157674872591571
 15.0597780892665440 10.9006314485456546 17.0736512308887356
 20.8887872696022363 12.7018943456369655 12.3578837436295785
 19.4315349745183141 11.8012628970913092 14.7157674872591571
 17.9742826794343920 10.9006314485456546 17.0736512308887356
 22.3460395646861585 11.8012628970913092 14.7157674872591571
 20.8887872696022363 10.9006314485456546 17.0736512308887356
 23.8032918597700842 10.9006314485456546 17.0736512308887356
 25.6045547568613969 15.6163989358048116 24.7039233083157370
 25.6045547568613969 23.2466710132318148 24.7039233083157370
 24.7039233083157370 13.2585151921752331 23.2466710132318148
 24.7039233083157370 25.6045547568613969 23.2466710132318148
 23.2466710132318148 14.1591466407208895 25.6045547568613969
 23.2466710132318148 24.7039233083157370 25.6045547568613969
 25.6045547568613969 15.6163989358048116 14.1591466407208895
 25.6045547568613969 23.2466710132318148 14.1591466407208895
 24.7039233083157370 13.2585151921752331 15.6163989358048116
 24.7039233083157370 25.6045547568613969 15.6163989358048116
 23.2466710132318148 14.1591466407208895 13.2585151921752331
 23.2466710132318148 24.7039233083157370 13.2585151921752331
 13.2585151921752331 15.6163989358048116 24.7039233083157370
 13.2585151921752331 23.2466710132318148 24.7039233083157370
 14.1591466407208895 13.2585151921752331 23.2466710132318148
 14.1591466407208895 25.6045547568613969 23.2466710132318148
 15.6163989358048116 14.1591466407208895 25.6045547568613969
 15.6163989358048116 24.7039233083157370 25.6045547568613969
 13.2585151921752331 15.6163989358048116 14.1591466407208895
 13.2585151921752331 23.2466710132318148 14.1591466407208895
 14.1591466407208895 13.2585151921752331 15.6163989358048116
 14.1591466407208895 25.6045547568613969 15.6163989358048116
 15.6163989358048116 14.1591466407208895 13.2585151921752331
 15.6163989358048116 24.7039233083157370 13.2585151921752331
