Au 
 1.0000000000000000
    65.0152888344503452    0.0000000000000000    0.0000000000000000
     0.0000000000000000   62.8120837789124664    0.0000000000000000
     0.0000000000000000    0.0000000000000000   54.6199480068933667
 Au 
 1543
Cartesian
 32.5076444172251797 32.2344364665267236 10.0000000000000000
 32.5076444172251797 32.2344364665267236 12.8849956672411139
 32.5076444172251797 32.2344364665267236 15.7699913344822278
 32.5076444172251797 32.2344364665267236 18.6549870017233417
 32.5076444172251797 32.2344364665267236 21.5399826689644556
 32.5076444172251797 32.2344364665267236 24.4249783362055695
 32.5076444172251797 32.2344364665267236 27.3099740034466834
 32.5076444172251797 32.2344364665267236 30.1949696706877972
 32.5076444172251797 32.2344364665267236 33.0799653379289111
 32.5076444172251797 32.2344364665267236 35.9649610051700250
 32.5076444172251797 32.2344364665267236 38.8499566724111389
 32.5076444172251797 32.2344364665267236 41.7349523396522528
 32.5076444172251797 32.2344364665267236 44.6199480068933667
 34.8838396623267002 33.0065091037551852 11.4424978336205569
 34.8838396623267002 33.0065091037551852 14.3274935008616708
 34.8838396623267002 33.0065091037551852 17.2124891681027847
 34.8838396623267002 33.0065091037551852 20.0974848353438986
 34.8838396623267002 33.0065091037551852 22.9824805025850125
 34.8838396623267002 33.0065091037551852 25.8674761698261264
 34.8838396623267002 33.0065091037551852 28.7524718370672403
 34.8838396623267002 33.0065091037551852 31.6374675043083542
 34.8838396623267002 33.0065091037551852 34.5224631715494681
 34.8838396623267002 33.0065091037551852 37.4074588387905820
 34.8838396623267002 33.0065091037551852 40.2924545060316959
 34.8838396623267002 33.0065091037551852 43.1774501732728098
 32.5076444172251797 34.7329160041655669 11.4424978336205569
 32.5076444172251797 34.7329160041655669 14.3274935008616708
 32.5076444172251797 34.7329160041655669 17.2124891681027847
 32.5076444172251797 34.7329160041655669 20.0974848353438986
 32.5076444172251797 34.7329160041655669 22.9824805025850125
 32.5076444172251797 34.7329160041655669 25.8674761698261264
 32.5076444172251797 34.7329160041655669 28.7524718370672403
 32.5076444172251797 34.7329160041655669 31.6374675043083542
 32.5076444172251797 34.7329160041655669 34.5224631715494681
 32.5076444172251797 34.7329160041655669 37.4074588387905820
 32.5076444172251797 34.7329160041655669 40.2924545060316959
 32.5076444172251797 34.7329160041655669 43.1774501732728098
 30.1314491721236557 33.0065091037551852 11.4424978336205569
 30.1314491721236557 33.0065091037551852 14.3274935008616708
 30.1314491721236557 33.0065091037551852 17.2124891681027847
 30.1314491721236557 33.0065091037551852 20.0974848353438986
 30.1314491721236557 33.0065091037551852 22.9824805025850125
 30.1314491721236557 33.0065091037551852 25.8674761698261264
 30.1314491721236557 33.0065091037551852 28.7524718370672403
 30.1314491721236557 33.0065091037551852 31.6374675043083542
 30.1314491721236557 33.0065091037551852 34.5224631715494681
 30.1314491721236557 33.0065091037551852 37.4074588387905820
 30.1314491721236557 33.0065091037551852 40.2924545060316959
 30.1314491721236557 33.0065091037551852 43.1774501732728098
 31.0390749918465509 30.2131240604788402 11.4424978336205569
 31.0390749918465509 30.2131240604788402 14.3274935008616708
 31.0390749918465509 30.2131240604788402 17.2124891681027847
 31.0390749918465509 30.2131240604788402 20.0974848353438986
 31.0390749918465509 30.2131240604788402 22.9824805025850125
 31.0390749918465509 30.2131240604788402 25.8674761698261264
 31.0390749918465509 30.2131240604788402 28.7524718370672403
 31.0390749918465509 30.2131240604788402 31.6374675043083542
 31.0390749918465509 30.2131240604788402 34.5224631715494681
 31.0390749918465509 30.2131240604788402 37.4074588387905820
 31.0390749918465509 30.2131240604788402 40.2924545060316959
 31.0390749918465509 30.2131240604788402 43.1774501732728098
 33.9762138426038049 30.2131240604788402 11.4424978336205569
 33.9762138426038049 30.2131240604788402 14.3274935008616708
 33.9762138426038049 30.2131240604788402 17.2124891681027847
 33.9762138426038049 30.2131240604788402 20.0974848353438986
 33.9762138426038049 30.2131240604788402 22.9824805025850125
 33.9762138426038049 30.2131240604788402 25.8674761698261264
 33.9762138426038049 30.2131240604788402 28.7524718370672403
 33.9762138426038049 30.2131240604788402 31.6374675043083542
 33.9762138426038049 30.2131240604788402 34.5224631715494681
 33.9762138426038049 30.2131240604788402 37.4074588387905820
 33.9762138426038049 30.2131240604788402 40.2924545060316959
 33.9762138426038049 30.2131240604788402 43.1774501732728098
 37.2600349074282278 33.7785817409836469 12.8849956672411139
 37.2600349074282278 33.7785817409836469 15.7699913344822278
 37.2600349074282278 33.7785817409836469 18.6549870017233417
 37.2600349074282278 33.7785817409836469 21.5399826689644556
 37.2600349074282278 33.7785817409836469 24.4249783362055695
 37.2600349074282278 33.7785817409836469 27.3099740034466834
 37.2600349074282278 33.7785817409836469 30.1949696706877972
 37.2600349074282278 33.7785817409836469 33.0799653379289111
 37.2600349074282278 33.7785817409836469 35.9649610051700250
 37.2600349074282278 33.7785817409836469 38.8499566724111389
 37.2600349074282278 33.7785817409836469 41.7349523396522528
 34.8838396623267002 35.5049886413940285 12.8849956672411139
 34.8838396623267002 35.5049886413940285 15.7699913344822278
 34.8838396623267002 35.5049886413940285 18.6549870017233417
 34.8838396623267002 35.5049886413940285 21.5399826689644556
 34.8838396623267002 35.5049886413940285 24.4249783362055695
 34.8838396623267002 35.5049886413940285 27.3099740034466834
 34.8838396623267002 35.5049886413940285 30.1949696706877972
 34.8838396623267002 35.5049886413940285 33.0799653379289111
 34.8838396623267002 35.5049886413940285 35.9649610051700250
 34.8838396623267002 35.5049886413940285 38.8499566724111389
 34.8838396623267002 35.5049886413940285 41.7349523396522528
 32.5076444172251797 37.2313955418044031 12.8849956672411139
 32.5076444172251797 37.2313955418044031 15.7699913344822278
 32.5076444172251797 37.2313955418044031 18.6549870017233417
 32.5076444172251797 37.2313955418044031 21.5399826689644556
 32.5076444172251797 37.2313955418044031 24.4249783362055695
 32.5076444172251797 37.2313955418044031 27.3099740034466834
 32.5076444172251797 37.2313955418044031 30.1949696706877972
 32.5076444172251797 37.2313955418044031 33.0799653379289111
 32.5076444172251797 37.2313955418044031 35.9649610051700250
 32.5076444172251797 37.2313955418044031 38.8499566724111389
 32.5076444172251797 37.2313955418044031 41.7349523396522528
 30.1314491721236557 35.5049886413940285 12.8849956672411139
 30.1314491721236557 35.5049886413940285 15.7699913344822278
 30.1314491721236557 35.5049886413940285 18.6549870017233417
 30.1314491721236557 35.5049886413940285 21.5399826689644556
 30.1314491721236557 35.5049886413940285 24.4249783362055695
 30.1314491721236557 35.5049886413940285 27.3099740034466834
 30.1314491721236557 35.5049886413940285 30.1949696706877972
 30.1314491721236557 35.5049886413940285 33.0799653379289111
 30.1314491721236557 35.5049886413940285 35.9649610051700250
 30.1314491721236557 35.5049886413940285 38.8499566724111389
 30.1314491721236557 35.5049886413940285 41.7349523396522528
 27.7552539270221352 33.7785817409836469 12.8849956672411139
 27.7552539270221352 33.7785817409836469 15.7699913344822278
 27.7552539270221352 33.7785817409836469 18.6549870017233417
 27.7552539270221352 33.7785817409836469 21.5399826689644556
 27.7552539270221352 33.7785817409836469 24.4249783362055695
 27.7552539270221352 33.7785817409836469 27.3099740034466834
 27.7552539270221352 33.7785817409836469 30.1949696706877972
 27.7552539270221352 33.7785817409836469 33.0799653379289111
 27.7552539270221352 33.7785817409836469 35.9649610051700250
 27.7552539270221352 33.7785817409836469 38.8499566724111389
 27.7552539270221352 33.7785817409836469 41.7349523396522528
 28.6628797467450269 30.9851966977073019 12.8849956672411139
 28.6628797467450269 30.9851966977073019 15.7699913344822278
 28.6628797467450269 30.9851966977073019 18.6549870017233417
 28.6628797467450269 30.9851966977073019 21.5399826689644556
 28.6628797467450269 30.9851966977073019 24.4249783362055695
 28.6628797467450269 30.9851966977073019 27.3099740034466834
 28.6628797467450269 30.9851966977073019 30.1949696706877972
 28.6628797467450269 30.9851966977073019 33.0799653379289111
 28.6628797467450269 30.9851966977073019 35.9649610051700250
 28.6628797467450269 30.9851966977073019 38.8499566724111389
 28.6628797467450269 30.9851966977073019 41.7349523396522528
 29.5705055664679222 28.1918116544309569 12.8849956672411139
 29.5705055664679222 28.1918116544309569 15.7699913344822278
 29.5705055664679222 28.1918116544309569 18.6549870017233417
 29.5705055664679222 28.1918116544309569 21.5399826689644556
 29.5705055664679222 28.1918116544309569 24.4249783362055695
 29.5705055664679222 28.1918116544309569 27.3099740034466834
 29.5705055664679222 28.1918116544309569 30.1949696706877972
 29.5705055664679222 28.1918116544309569 33.0799653379289111
 29.5705055664679222 28.1918116544309569 35.9649610051700250
 29.5705055664679222 28.1918116544309569 38.8499566724111389
 29.5705055664679222 28.1918116544309569 41.7349523396522528
 32.5076444172251797 28.1918116544309569 12.8849956672411139
 32.5076444172251797 28.1918116544309569 15.7699913344822278
 32.5076444172251797 28.1918116544309569 18.6549870017233417
 32.5076444172251797 28.1918116544309569 21.5399826689644556
 32.5076444172251797 28.1918116544309569 24.4249783362055695
 32.5076444172251797 28.1918116544309569 27.3099740034466834
 32.5076444172251797 28.1918116544309569 30.1949696706877972
 32.5076444172251797 28.1918116544309569 33.0799653379289111
 32.5076444172251797 28.1918116544309569 35.9649610051700250
 32.5076444172251797 28.1918116544309569 38.8499566724111389
 32.5076444172251797 28.1918116544309569 41.7349523396522528
 35.4447832679824373 28.1918116544309569 12.8849956672411139
 35.4447832679824373 28.1918116544309569 15.7699913344822278
 35.4447832679824373 28.1918116544309569 18.6549870017233417
 35.4447832679824373 28.1918116544309569 21.5399826689644556
 35.4447832679824373 28.1918116544309569 24.4249783362055695
 35.4447832679824373 28.1918116544309569 27.3099740034466834
 35.4447832679824373 28.1918116544309569 30.1949696706877972
 35.4447832679824373 28.1918116544309569 33.0799653379289111
 35.4447832679824373 28.1918116544309569 35.9649610051700250
 35.4447832679824373 28.1918116544309569 38.8499566724111389
 35.4447832679824373 28.1918116544309569 41.7349523396522528
 36.3524090877053325 30.9851966977073019 12.8849956672411139
 36.3524090877053325 30.9851966977073019 15.7699913344822278
 36.3524090877053325 30.9851966977073019 18.6549870017233417
 36.3524090877053325 30.9851966977073019 21.5399826689644556
 36.3524090877053325 30.9851966977073019 24.4249783362055695
 36.3524090877053325 30.9851966977073019 27.3099740034466834
 36.3524090877053325 30.9851966977073019 30.1949696706877972
 36.3524090877053325 30.9851966977073019 33.0799653379289111
 36.3524090877053325 30.9851966977073019 35.9649610051700250
 36.3524090877053325 30.9851966977073019 38.8499566724111389
 36.3524090877053325 30.9851966977073019 41.7349523396522528
 39.6362301525297482 34.5506543782121085 14.3274935008616708
 39.6362301525297482 34.5506543782121085 17.2124891681027847
 39.6362301525297482 34.5506543782121085 20.0974848353438986
 39.6362301525297482 34.5506543782121085 22.9824805025850125
 39.6362301525297482 34.5506543782121085 25.8674761698261264
 39.6362301525297482 34.5506543782121085 28.7524718370672403
 39.6362301525297482 34.5506543782121085 31.6374675043083542
 39.6362301525297482 34.5506543782121085 34.5224631715494681
 39.6362301525297482 34.5506543782121085 37.4074588387905820
 39.6362301525297482 34.5506543782121085 40.2924545060316959
 37.2600349074282278 36.2770612786224902 14.3274935008616708
 37.2600349074282278 36.2770612786224902 17.2124891681027847
 37.2600349074282278 36.2770612786224902 20.0974848353438986
 37.2600349074282278 36.2770612786224902 22.9824805025850125
 37.2600349074282278 36.2770612786224902 25.8674761698261264
 37.2600349074282278 36.2770612786224902 28.7524718370672403
 37.2600349074282278 36.2770612786224902 31.6374675043083542
 37.2600349074282278 36.2770612786224902 34.5224631715494681
 37.2600349074282278 36.2770612786224902 37.4074588387905820
 37.2600349074282278 36.2770612786224902 40.2924545060316959
 34.8838396623267002 38.0034681790328719 14.3274935008616708
 34.8838396623267002 38.0034681790328719 17.2124891681027847
 34.8838396623267002 38.0034681790328719 20.0974848353438986
 34.8838396623267002 38.0034681790328719 22.9824805025850125
 34.8838396623267002 38.0034681790328719 25.8674761698261264
 34.8838396623267002 38.0034681790328719 28.7524718370672403
 34.8838396623267002 38.0034681790328719 31.6374675043083542
 34.8838396623267002 38.0034681790328719 34.5224631715494681
 34.8838396623267002 38.0034681790328719 37.4074588387905820
 34.8838396623267002 38.0034681790328719 40.2924545060316959
 32.5076444172251797 39.7298750794432465 14.3274935008616708
 32.5076444172251797 39.7298750794432465 17.2124891681027847
 32.5076444172251797 39.7298750794432465 20.0974848353438986
 32.5076444172251797 39.7298750794432465 22.9824805025850125
 32.5076444172251797 39.7298750794432465 25.8674761698261264
 32.5076444172251797 39.7298750794432465 28.7524718370672403
 32.5076444172251797 39.7298750794432465 31.6374675043083542
 32.5076444172251797 39.7298750794432465 34.5224631715494681
 32.5076444172251797 39.7298750794432465 37.4074588387905820
 32.5076444172251797 39.7298750794432465 40.2924545060316959
 30.1314491721236593 38.0034681790328719 14.3274935008616708
 30.1314491721236593 38.0034681790328719 17.2124891681027847
 30.1314491721236593 38.0034681790328719 20.0974848353438986
 30.1314491721236593 38.0034681790328719 22.9824805025850125
 30.1314491721236593 38.0034681790328719 25.8674761698261264
 30.1314491721236593 38.0034681790328719 28.7524718370672403
 30.1314491721236593 38.0034681790328719 31.6374675043083542
 30.1314491721236593 38.0034681790328719 34.5224631715494681
 30.1314491721236593 38.0034681790328719 37.4074588387905820
 30.1314491721236593 38.0034681790328719 40.2924545060316959
 27.7552539270221352 36.2770612786224902 14.3274935008616708
 27.7552539270221352 36.2770612786224902 17.2124891681027847
 27.7552539270221352 36.2770612786224902 20.0974848353438986
 27.7552539270221352 36.2770612786224902 22.9824805025850125
 27.7552539270221352 36.2770612786224902 25.8674761698261264
 27.7552539270221352 36.2770612786224902 28.7524718370672403
 27.7552539270221352 36.2770612786224902 31.6374675043083542
 27.7552539270221352 36.2770612786224902 34.5224631715494681
 27.7552539270221352 36.2770612786224902 37.4074588387905820
 27.7552539270221352 36.2770612786224902 40.2924545060316959
 25.3790586819206112 34.5506543782121156 14.3274935008616708
 25.3790586819206112 34.5506543782121156 17.2124891681027847
 25.3790586819206112 34.5506543782121156 20.0974848353438986
 25.3790586819206112 34.5506543782121156 22.9824805025850125
 25.3790586819206112 34.5506543782121156 25.8674761698261264
 25.3790586819206112 34.5506543782121156 28.7524718370672403
 25.3790586819206112 34.5506543782121156 31.6374675043083542
 25.3790586819206112 34.5506543782121156 34.5224631715494681
 25.3790586819206112 34.5506543782121156 37.4074588387905820
 25.3790586819206112 34.5506543782121156 40.2924545060316959
 26.2866845016435065 31.7572693349357671 14.3274935008616708
 26.2866845016435065 31.7572693349357671 17.2124891681027847
 26.2866845016435065 31.7572693349357671 20.0974848353438986
 26.2866845016435065 31.7572693349357671 22.9824805025850125
 26.2866845016435065 31.7572693349357671 25.8674761698261264
 26.2866845016435065 31.7572693349357671 28.7524718370672403
 26.2866845016435065 31.7572693349357671 31.6374675043083542
 26.2866845016435065 31.7572693349357671 34.5224631715494681
 26.2866845016435065 31.7572693349357671 37.4074588387905820
 26.2866845016435065 31.7572693349357671 40.2924545060316959
 27.1943103213664017 28.9638842916594186 14.3274935008616708
 27.1943103213664017 28.9638842916594186 17.2124891681027847
 27.1943103213664017 28.9638842916594186 20.0974848353438986
 27.1943103213664017 28.9638842916594186 22.9824805025850125
 27.1943103213664017 28.9638842916594186 25.8674761698261264
 27.1943103213664017 28.9638842916594186 28.7524718370672403
 27.1943103213664017 28.9638842916594186 31.6374675043083542
 27.1943103213664017 28.9638842916594186 34.5224631715494681
 27.1943103213664017 28.9638842916594186 37.4074588387905820
 27.1943103213664017 28.9638842916594186 40.2924545060316959
 28.1019361410892969 26.1704992483830736 14.3274935008616708
 28.1019361410892969 26.1704992483830736 17.2124891681027847
 28.1019361410892969 26.1704992483830736 20.0974848353438986
 28.1019361410892969 26.1704992483830736 22.9824805025850125
 28.1019361410892969 26.1704992483830736 25.8674761698261264
 28.1019361410892969 26.1704992483830736 28.7524718370672403
 28.1019361410892969 26.1704992483830736 31.6374675043083542
 28.1019361410892969 26.1704992483830736 34.5224631715494681
 28.1019361410892969 26.1704992483830736 37.4074588387905820
 28.1019361410892969 26.1704992483830736 40.2924545060316959
 31.0390749918465509 26.1704992483830736 14.3274935008616708
 31.0390749918465509 26.1704992483830736 17.2124891681027847
 31.0390749918465509 26.1704992483830736 20.0974848353438986
 31.0390749918465509 26.1704992483830736 22.9824805025850125
 31.0390749918465509 26.1704992483830736 25.8674761698261264
 31.0390749918465509 26.1704992483830736 28.7524718370672403
 31.0390749918465509 26.1704992483830736 31.6374675043083542
 31.0390749918465509 26.1704992483830736 34.5224631715494681
 31.0390749918465509 26.1704992483830736 37.4074588387905820
 31.0390749918465509 26.1704992483830736 40.2924545060316959
 33.9762138426038049 26.1704992483830736 14.3274935008616708
 33.9762138426038049 26.1704992483830736 17.2124891681027847
 33.9762138426038049 26.1704992483830736 20.0974848353438986
 33.9762138426038049 26.1704992483830736 22.9824805025850125
 33.9762138426038049 26.1704992483830736 25.8674761698261264
 33.9762138426038049 26.1704992483830736 28.7524718370672403
 33.9762138426038049 26.1704992483830736 31.6374675043083542
 33.9762138426038049 26.1704992483830736 34.5224631715494681
 33.9762138426038049 26.1704992483830736 37.4074588387905820
 33.9762138426038049 26.1704992483830736 40.2924545060316959
 36.9133526933610625 26.1704992483830701 14.3274935008616708
 36.9133526933610625 26.1704992483830701 17.2124891681027847
 36.9133526933610625 26.1704992483830701 20.0974848353438986
 36.9133526933610625 26.1704992483830701 22.9824805025850125
 36.9133526933610625 26.1704992483830701 25.8674761698261264
 36.9133526933610625 26.1704992483830701 28.7524718370672403
 36.9133526933610625 26.1704992483830701 31.6374675043083542
 36.9133526933610625 26.1704992483830701 34.5224631715494681
 36.9133526933610625 26.1704992483830701 37.4074588387905820
 36.9133526933610625 26.1704992483830701 40.2924545060316959
 37.8209785130839578 28.9638842916594186 14.3274935008616708
 37.8209785130839578 28.9638842916594186 17.2124891681027847
 37.8209785130839578 28.9638842916594186 20.0974848353438986
 37.8209785130839578 28.9638842916594186 22.9824805025850125
 37.8209785130839578 28.9638842916594186 25.8674761698261264
 37.8209785130839578 28.9638842916594186 28.7524718370672403
 37.8209785130839578 28.9638842916594186 31.6374675043083542
 37.8209785130839578 28.9638842916594186 34.5224631715494681
 37.8209785130839578 28.9638842916594186 37.4074588387905820
 37.8209785130839578 28.9638842916594186 40.2924545060316959
 38.7286043328068530 31.7572693349357635 14.3274935008616708
 38.7286043328068530 31.7572693349357635 17.2124891681027847
 38.7286043328068530 31.7572693349357635 20.0974848353438986
 38.7286043328068530 31.7572693349357635 22.9824805025850125
 38.7286043328068530 31.7572693349357635 25.8674761698261264
 38.7286043328068530 31.7572693349357635 28.7524718370672403
 38.7286043328068530 31.7572693349357635 31.6374675043083542
 38.7286043328068530 31.7572693349357635 34.5224631715494681
 38.7286043328068530 31.7572693349357635 37.4074588387905820
 38.7286043328068530 31.7572693349357635 40.2924545060316959
 42.0124253976312687 35.3227270154405772 15.7699913344822278
 42.0124253976312687 35.3227270154405772 18.6549870017233417
 42.0124253976312687 35.3227270154405772 21.5399826689644556
 42.0124253976312687 35.3227270154405772 24.4249783362055695
 42.0124253976312687 35.3227270154405772 27.3099740034466834
 42.0124253976312687 35.3227270154405772 30.1949696706877972
 42.0124253976312687 35.3227270154405772 33.0799653379289111
 42.0124253976312687 35.3227270154405772 35.9649610051700250
 42.0124253976312687 35.3227270154405772 38.8499566724111389
 39.6362301525297482 37.0491339158509518 15.7699913344822278
 39.6362301525297482 37.0491339158509518 18.6549870017233417
 39.6362301525297482 37.0491339158509518 21.5399826689644556
 39.6362301525297482 37.0491339158509518 24.4249783362055695
 39.6362301525297482 37.0491339158509518 27.3099740034466834
 39.6362301525297482 37.0491339158509518 30.1949696706877972
 39.6362301525297482 37.0491339158509518 33.0799653379289111
 39.6362301525297482 37.0491339158509518 35.9649610051700250
 39.6362301525297482 37.0491339158509518 38.8499566724111389
 37.2600349074282278 38.7755408162613335 15.7699913344822278
 37.2600349074282278 38.7755408162613335 18.6549870017233417
 37.2600349074282278 38.7755408162613335 21.5399826689644556
 37.2600349074282278 38.7755408162613335 24.4249783362055695
 37.2600349074282278 38.7755408162613335 27.3099740034466834
 37.2600349074282278 38.7755408162613335 30.1949696706877972
 37.2600349074282278 38.7755408162613335 33.0799653379289111
 37.2600349074282278 38.7755408162613335 35.9649610051700250
 37.2600349074282278 38.7755408162613335 38.8499566724111389
 34.8838396623267002 40.5019477166717081 15.7699913344822278
 34.8838396623267002 40.5019477166717081 18.6549870017233417
 34.8838396623267002 40.5019477166717081 21.5399826689644556
 34.8838396623267002 40.5019477166717081 24.4249783362055695
 34.8838396623267002 40.5019477166717081 27.3099740034466834
 34.8838396623267002 40.5019477166717081 30.1949696706877972
 34.8838396623267002 40.5019477166717081 33.0799653379289111
 34.8838396623267002 40.5019477166717081 35.9649610051700250
 34.8838396623267002 40.5019477166717081 38.8499566724111389
 32.5076444172251797 42.2283546170820898 15.7699913344822278
 32.5076444172251797 42.2283546170820898 18.6549870017233417
 32.5076444172251797 42.2283546170820898 21.5399826689644556
 32.5076444172251797 42.2283546170820898 24.4249783362055695
 32.5076444172251797 42.2283546170820898 27.3099740034466834
 32.5076444172251797 42.2283546170820898 30.1949696706877972
 32.5076444172251797 42.2283546170820898 33.0799653379289111
 32.5076444172251797 42.2283546170820898 35.9649610051700250
 32.5076444172251797 42.2283546170820898 38.8499566724111389
 30.1314491721236593 40.5019477166717081 15.7699913344822278
 30.1314491721236593 40.5019477166717081 18.6549870017233417
 30.1314491721236593 40.5019477166717081 21.5399826689644556
 30.1314491721236593 40.5019477166717081 24.4249783362055695
 30.1314491721236593 40.5019477166717081 27.3099740034466834
 30.1314491721236593 40.5019477166717081 30.1949696706877972
 30.1314491721236593 40.5019477166717081 33.0799653379289111
 30.1314491721236593 40.5019477166717081 35.9649610051700250
 30.1314491721236593 40.5019477166717081 38.8499566724111389
 27.7552539270221352 38.7755408162613335 15.7699913344822278
 27.7552539270221352 38.7755408162613335 18.6549870017233417
 27.7552539270221352 38.7755408162613335 21.5399826689644556
 27.7552539270221352 38.7755408162613335 24.4249783362055695
 27.7552539270221352 38.7755408162613335 27.3099740034466834
 27.7552539270221352 38.7755408162613335 30.1949696706877972
 27.7552539270221352 38.7755408162613335 33.0799653379289111
 27.7552539270221352 38.7755408162613335 35.9649610051700250
 27.7552539270221352 38.7755408162613335 38.8499566724111389
 25.3790586819206112 37.0491339158509589 15.7699913344822278
 25.3790586819206112 37.0491339158509589 18.6549870017233417
 25.3790586819206112 37.0491339158509589 21.5399826689644556
 25.3790586819206112 37.0491339158509589 24.4249783362055695
 25.3790586819206112 37.0491339158509589 27.3099740034466834
 25.3790586819206112 37.0491339158509589 30.1949696706877972
 25.3790586819206112 37.0491339158509589 33.0799653379289111
 25.3790586819206112 37.0491339158509589 35.9649610051700250
 25.3790586819206112 37.0491339158509589 38.8499566724111389
 23.0028634368190907 35.3227270154405772 15.7699913344822278
 23.0028634368190907 35.3227270154405772 18.6549870017233417
 23.0028634368190907 35.3227270154405772 21.5399826689644556
 23.0028634368190907 35.3227270154405772 24.4249783362055695
 23.0028634368190907 35.3227270154405772 27.3099740034466834
 23.0028634368190907 35.3227270154405772 30.1949696706877972
 23.0028634368190907 35.3227270154405772 33.0799653379289111
 23.0028634368190907 35.3227270154405772 35.9649610051700250
 23.0028634368190907 35.3227270154405772 38.8499566724111389
 23.9104892565419824 32.5293419721642323 15.7699913344822278
 23.9104892565419824 32.5293419721642323 18.6549870017233417
 23.9104892565419824 32.5293419721642323 21.5399826689644556
 23.9104892565419824 32.5293419721642323 24.4249783362055695
 23.9104892565419824 32.5293419721642323 27.3099740034466834
 23.9104892565419824 32.5293419721642323 30.1949696706877972
 23.9104892565419824 32.5293419721642323 33.0799653379289111
 23.9104892565419824 32.5293419721642323 35.9649610051700250
 23.9104892565419824 32.5293419721642323 38.8499566724111389
 24.8181150762648777 29.7359569288878838 15.7699913344822278
 24.8181150762648777 29.7359569288878838 18.6549870017233417
 24.8181150762648777 29.7359569288878838 21.5399826689644556
 24.8181150762648777 29.7359569288878838 24.4249783362055695
 24.8181150762648777 29.7359569288878838 27.3099740034466834
 24.8181150762648777 29.7359569288878838 30.1949696706877972
 24.8181150762648777 29.7359569288878838 33.0799653379289111
 24.8181150762648777 29.7359569288878838 35.9649610051700250
 24.8181150762648777 29.7359569288878838 38.8499566724111389
 25.7257408959877729 26.9425718856115353 15.7699913344822278
 25.7257408959877729 26.9425718856115353 18.6549870017233417
 25.7257408959877729 26.9425718856115353 21.5399826689644556
 25.7257408959877729 26.9425718856115353 24.4249783362055695
 25.7257408959877729 26.9425718856115353 27.3099740034466834
 25.7257408959877729 26.9425718856115353 30.1949696706877972
 25.7257408959877729 26.9425718856115353 33.0799653379289111
 25.7257408959877729 26.9425718856115353 35.9649610051700250
 25.7257408959877729 26.9425718856115353 38.8499566724111389
 26.6333667157106646 24.1491868423351903 15.7699913344822278
 26.6333667157106646 24.1491868423351903 18.6549870017233417
 26.6333667157106646 24.1491868423351903 21.5399826689644556
 26.6333667157106646 24.1491868423351903 24.4249783362055695
 26.6333667157106646 24.1491868423351903 27.3099740034466834
 26.6333667157106646 24.1491868423351903 30.1949696706877972
 26.6333667157106646 24.1491868423351903 33.0799653379289111
 26.6333667157106646 24.1491868423351903 35.9649610051700250
 26.6333667157106646 24.1491868423351903 38.8499566724111389
 29.5705055664679222 24.1491868423351868 15.7699913344822278
 29.5705055664679222 24.1491868423351868 18.6549870017233417
 29.5705055664679222 24.1491868423351868 21.5399826689644556
 29.5705055664679222 24.1491868423351868 24.4249783362055695
 29.5705055664679222 24.1491868423351868 27.3099740034466834
 29.5705055664679222 24.1491868423351868 30.1949696706877972
 29.5705055664679222 24.1491868423351868 33.0799653379289111
 29.5705055664679222 24.1491868423351868 35.9649610051700250
 29.5705055664679222 24.1491868423351868 38.8499566724111389
 32.5076444172251797 24.1491868423351868 15.7699913344822278
 32.5076444172251797 24.1491868423351868 18.6549870017233417
 32.5076444172251797 24.1491868423351868 21.5399826689644556
 32.5076444172251797 24.1491868423351868 24.4249783362055695
 32.5076444172251797 24.1491868423351868 27.3099740034466834
 32.5076444172251797 24.1491868423351868 30.1949696706877972
 32.5076444172251797 24.1491868423351868 33.0799653379289111
 32.5076444172251797 24.1491868423351868 35.9649610051700250
 32.5076444172251797 24.1491868423351868 38.8499566724111389
 35.4447832679824373 24.1491868423351868 15.7699913344822278
 35.4447832679824373 24.1491868423351868 18.6549870017233417
 35.4447832679824373 24.1491868423351868 21.5399826689644556
 35.4447832679824373 24.1491868423351868 24.4249783362055695
 35.4447832679824373 24.1491868423351868 27.3099740034466834
 35.4447832679824373 24.1491868423351868 30.1949696706877972
 35.4447832679824373 24.1491868423351868 33.0799653379289111
 35.4447832679824373 24.1491868423351868 35.9649610051700250
 35.4447832679824373 24.1491868423351868 38.8499566724111389
 38.3819221187396877 24.1491868423351868 15.7699913344822278
 38.3819221187396877 24.1491868423351868 18.6549870017233417
 38.3819221187396877 24.1491868423351868 21.5399826689644556
 38.3819221187396877 24.1491868423351868 24.4249783362055695
 38.3819221187396877 24.1491868423351868 27.3099740034466834
 38.3819221187396877 24.1491868423351868 30.1949696706877972
 38.3819221187396877 24.1491868423351868 33.0799653379289111
 38.3819221187396877 24.1491868423351868 35.9649610051700250
 38.3819221187396877 24.1491868423351868 38.8499566724111389
 39.2895479384625830 26.9425718856115353 15.7699913344822278