Au 
 1.0000000000000000
    47.8209785130839506    0.0000000000000000    0.0000000000000000
     0.0000000000000000   46.4593229045759415    0.0000000000000000
     0.0000000000000000    0.0000000000000000   48.8499566724111389
 Au 
 646
Cartesian
 23.9104892565419789 24.1491868423351868 10.0000000000000000
 23.9104892565419789 24.1491868423351868 12.8849956672411139
 23.9104892565419789 24.1491868423351868 15.7699913344822278
 23.9104892565419789 24.1491868423351868 18.6549870017233417
 23.9104892565419789 24.1491868423351868 21.5399826689644556
 23.9104892565419789 24.1491868423351868 24.4249783362055695
 23.9104892565419789 24.1491868423351868 27.3099740034466834
 23.9104892565419789 24.1491868423351868 30.1949696706877972
 23.9104892565419789 24.1491868423351868 33.0799653379289111
 23.9104892565419789 24.1491868423351868 35.9649610051700250
 23.9104892565419789 24.1491868423351868 38.8499566724111389
 26.2866845016435029 24.9212594795636484 11.4424978336205569
 26.2866845016435029 24.9212594795636484 14.3274935008616708
 26.2866845016435029 24.9212594795636484 17.2124891681027847
 26.2866845016435029 24.9212594795636484 20.0974848353438986
 26.2866845016435029 24.9212594795636484 22.9824805025850125
 26.2866845016435029 24.9212594795636484 25.8674761698261264
 26.2866845016435029 24.9212594795636484 28.7524718370672403
 26.2866845016435029 24.9212594795636484 31.6374675043083542
 26.2866845016435029 24.9212594795636484 34.5224631715494681
 26.2866845016435029 24.9212594795636484 37.4074588387905820
 23.9104892565419789 26.6476663799740265 11.4424978336205569
 23.9104892565419789 26.6476663799740265 14.3274935008616708
 23.9104892565419789 26.6476663799740265 17.2124891681027847
 23.9104892565419789 26.6476663799740265 20.0974848353438986
 23.9104892565419789 26.6476663799740265 22.9824805025850125
 23.9104892565419789 26.6476663799740265 25.8674761698261264
 23.9104892565419789 26.6476663799740265 28.7524718370672403
 23.9104892565419789 26.6476663799740265 31.6374675043083542
 23.9104892565419789 26.6476663799740265 34.5224631715494681
 23.9104892565419789 26.6476663799740265 37.4074588387905820
 21.5342940114404549 24.9212594795636484 11.4424978336205569
 21.5342940114404549 24.9212594795636484 14.3274935008616708
 21.5342940114404549 24.9212594795636484 17.2124891681027847
 21.5342940114404549 24.9212594795636484 20.0974848353438986
 21.5342940114404549 24.9212594795636484 22.9824805025850125
 21.5342940114404549 24.9212594795636484 25.8674761698261264
 21.5342940114404549 24.9212594795636484 28.7524718370672403
 21.5342940114404549 24.9212594795636484 31.6374675043083542
 21.5342940114404549 24.9212594795636484 34.5224631715494681
 21.5342940114404549 24.9212594795636484 37.4074588387905820
 22.4419198311633501 22.1278744362873034 11.4424978336205569
 22.4419198311633501 22.1278744362873034 14.3274935008616708
 22.4419198311633501 22.1278744362873034 17.2124891681027847
 22.4419198311633501 22.1278744362873034 20.0974848353438986
 22.4419198311633501 22.1278744362873034 22.9824805025850125
 22.4419198311633501 22.1278744362873034 25.8674761698261264
 22.4419198311633501 22.1278744362873034 28.7524718370672403
 22.4419198311633501 22.1278744362873034 31.6374675043083542
 22.4419198311633501 22.1278744362873034 34.5224631715494681
 22.4419198311633501 22.1278744362873034 37.4074588387905820
 25.3790586819206077 22.1278744362873034 11.4424978336205569
 25.3790586819206077 22.1278744362873034 14.3274935008616708
 25.3790586819206077 22.1278744362873034 17.2124891681027847
 25.3790586819206077 22.1278744362873034 20.0974848353438986
 25.3790586819206077 22.1278744362873034 22.9824805025850125
 25.3790586819206077 22.1278744362873034 25.8674761698261264
 25.3790586819206077 22.1278744362873034 28.7524718370672403
 25.3790586819206077 22.1278744362873034 31.6374675043083542
 25.3790586819206077 22.1278744362873034 34.5224631715494681
 25.3790586819206077 22.1278744362873034 37.4074588387905820
 28.6628797467450234 25.6933321167921136 12.8849956672411139
 28.6628797467450234 25.6933321167921136 15.7699913344822278
 28.6628797467450234 25.6933321167921136 18.6549870017233417
 28.6628797467450234 25.6933321167921136 21.5399826689644556
 28.6628797467450234 25.6933321167921136 24.4249783362055695
 28.6628797467450234 25.6933321167921136 27.3099740034466834
 28.6628797467450234 25.6933321167921136 30.1949696706877972
 28.6628797467450234 25.6933321167921136 33.0799653379289111
 28.6628797467450234 25.6933321167921136 35.9649610051700250
 26.2866845016435029 27.4197390172024917 12.8849956672411139
 26.2866845016435029 27.4197390172024917 15.7699913344822278
 26.2866845016435029 27.4197390172024917 18.6549870017233417
 26.2866845016435029 27.4197390172024917 21.5399826689644556
 26.2866845016435029 27.4197390172024917 24.4249783362055695
 26.2866845016435029 27.4197390172024917 27.3099740034466834
 26.2866845016435029 27.4197390172024917 30.1949696706877972
 26.2866845016435029 27.4197390172024917 33.0799653379289111
 26.2866845016435029 27.4197390172024917 35.9649610051700250
 23.9104892565419789 29.1461459176128699 12.8849956672411139
 23.9104892565419789 29.1461459176128699 15.7699913344822278
 23.9104892565419789 29.1461459176128699 18.6549870017233417
 23.9104892565419789 29.1461459176128699 21.5399826689644556
 23.9104892565419789 29.1461459176128699 24.4249783362055695
 23.9104892565419789 29.1461459176128699 27.3099740034466834
 23.9104892565419789 29.1461459176128699 30.1949696706877972
 23.9104892565419789 29.1461459176128699 33.0799653379289111
 23.9104892565419789 29.1461459176128699 35.9649610051700250
 21.5342940114404549 27.4197390172024917 12.8849956672411139
 21.5342940114404549 27.4197390172024917 15.7699913344822278
 21.5342940114404549 27.4197390172024917 18.6549870017233417
 21.5342940114404549 27.4197390172024917 21.5399826689644556
 21.5342940114404549 27.4197390172024917 24.4249783362055695
 21.5342940114404549 27.4197390172024917 27.3099740034466834
 21.5342940114404549 27.4197390172024917 30.1949696706877972
 21.5342940114404549 27.4197390172024917 33.0799653379289111
 21.5342940114404549 27.4197390172024917 35.9649610051700250
 19.1580987663389344 25.6933321167921136 12.8849956672411139
 19.1580987663389344 25.6933321167921136 15.7699913344822278
 19.1580987663389344 25.6933321167921136 18.6549870017233417
 19.1580987663389344 25.6933321167921136 21.5399826689644556
 19.1580987663389344 25.6933321167921136 24.4249783362055695
 19.1580987663389344 25.6933321167921136 27.3099740034466834
 19.1580987663389344 25.6933321167921136 30.1949696706877972
 19.1580987663389344 25.6933321167921136 33.0799653379289111
 19.1580987663389344 25.6933321167921136 35.9649610051700250
 20.0657245860618261 22.8999470735157651 12.8849956672411139
 20.0657245860618261 22.8999470735157651 15.7699913344822278
 20.0657245860618261 22.8999470735157651 18.6549870017233417
 20.0657245860618261 22.8999470735157651 21.5399826689644556
 20.0657245860618261 22.8999470735157651 24.4249783362055695
 20.0657245860618261 22.8999470735157651 27.3099740034466834
 20.0657245860618261 22.8999470735157651 30.1949696706877972
 20.0657245860618261 22.8999470735157651 33.0799653379289111
 20.0657245860618261 22.8999470735157651 35.9649610051700250
 20.9733504057847213 20.1065620302394201 12.8849956672411139
 20.9733504057847213 20.1065620302394201 15.7699913344822278
 20.9733504057847213 20.1065620302394201 18.6549870017233417
 20.9733504057847213 20.1065620302394201 21.5399826689644556
 20.9733504057847213 20.1065620302394201 24.4249783362055695
 20.9733504057847213 20.1065620302394201 27.3099740034466834
 20.9733504057847213 20.1065620302394201 30.1949696706877972
 20.9733504057847213 20.1065620302394201 33.0799653379289111
 20.9733504057847213 20.1065620302394201 35.9649610051700250
 23.9104892565419789 20.1065620302394166 12.8849956672411139
 23.9104892565419789 20.1065620302394166 15.7699913344822278
 23.9104892565419789 20.1065620302394166 18.6549870017233417
 23.9104892565419789 20.1065620302394166 21.5399826689644556
 23.9104892565419789 20.1065620302394166 24.4249783362055695
 23.9104892565419789 20.1065620302394166 27.3099740034466834
 23.9104892565419789 20.1065620302394166 30.1949696706877972
 23.9104892565419789 20.1065620302394166 33.0799653379289111
 23.9104892565419789 20.1065620302394166 35.9649610051700250
 26.8476281072992329 20.1065620302394166 12.8849956672411139
 26.8476281072992329 20.1065620302394166 15.7699913344822278
 26.8476281072992329 20.1065620302394166 18.6549870017233417
 26.8476281072992329 20.1065620302394166 21.5399826689644556
 26.8476281072992329 20.1065620302394166 24.4249783362055695
 26.8476281072992329 20.1065620302394166 27.3099740034466834
 26.8476281072992329 20.1065620302394166 30.1949696706877972
 26.8476281072992329 20.1065620302394166 33.0799653379289111
 26.8476281072992329 20.1065620302394166 35.9649610051700250
 27.7552539270221281 22.8999470735157651 12.8849956672411139
 27.7552539270221281 22.8999470735157651 15.7699913344822278
 27.7552539270221281 22.8999470735157651 18.6549870017233417
 27.7552539270221281 22.8999470735157651 21.5399826689644556
 27.7552539270221281 22.8999470735157651 24.4249783362055695
 27.7552539270221281 22.8999470735157651 27.3099740034466834
 27.7552539270221281 22.8999470735157651 30.1949696706877972
 27.7552539270221281 22.8999470735157651 33.0799653379289111
 27.7552539270221281 22.8999470735157651 35.9649610051700250
 31.0390749918465474 26.4654047540205752 14.3274935008616708
 31.0390749918465474 26.4654047540205752 17.2124891681027847
 31.0390749918465474 26.4654047540205752 20.0974848353438986
 31.0390749918465474 26.4654047540205752 22.9824805025850125
 31.0390749918465474 26.4654047540205752 25.8674761698261264
 31.0390749918465474 26.4654047540205752 28.7524718370672403
 31.0390749918465474 26.4654047540205752 31.6374675043083542
 31.0390749918465474 26.4654047540205752 34.5224631715494681
 28.6628797467450234 28.1918116544309534 14.3274935008616708
 28.6628797467450234 28.1918116544309534 17.2124891681027847
 28.6628797467450234 28.1918116544309534 20.0974848353438986
 28.6628797467450234 28.1918116544309534 22.9824805025850125
 28.6628797467450234 28.1918116544309534 25.8674761698261264
 28.6628797467450234 28.1918116544309534 28.7524718370672403
 28.6628797467450234 28.1918116544309534 31.6374675043083542
 28.6628797467450234 28.1918116544309534 34.5224631715494681
 26.2866845016435029 29.9182185548413315 14.3274935008616708
 26.2866845016435029 29.9182185548413315 17.2124891681027847
 26.2866845016435029 29.9182185548413315 20.0974848353438986
 26.2866845016435029 29.9182185548413315 22.9824805025850125
 26.2866845016435029 29.9182185548413315 25.8674761698261264
 26.2866845016435029 29.9182185548413315 28.7524718370672403
 26.2866845016435029 29.9182185548413315 31.6374675043083542
 26.2866845016435029 29.9182185548413315 34.5224631715494681
 23.9104892565419789 31.6446254552517132 14.3274935008616708
 23.9104892565419789 31.6446254552517132 17.2124891681027847
 23.9104892565419789 31.6446254552517132 20.0974848353438986
 23.9104892565419789 31.6446254552517132 22.9824805025850125
 23.9104892565419789 31.6446254552517132 25.8674761698261264
 23.9104892565419789 31.6446254552517132 28.7524718370672403
 23.9104892565419789 31.6446254552517132 31.6374675043083542
 23.9104892565419789 31.6446254552517132 34.5224631715494681
 21.5342940114404584 29.9182185548413315 14.3274935008616708
 21.5342940114404584 29.9182185548413315 17.2124891681027847
 21.5342940114404584 29.9182185548413315 20.0974848353438986
 21.5342940114404584 29.9182185548413315 22.9824805025850125
 21.5342940114404584 29.9182185548413315 25.8674761698261264
 21.5342940114404584 29.9182185548413315 28.7524718370672403
 21.5342940114404584 29.9182185548413315 31.6374675043083542
 21.5342940114404584 29.9182185548413315 34.5224631715494681
 19.1580987663389344 28.1918116544309569 14.3274935008616708
 19.1580987663389344 28.1918116544309569 17.2124891681027847
 19.1580987663389344 28.1918116544309569 20.0974848353438986
 19.1580987663389344 28.1918116544309569 22.9824805025850125
 19.1580987663389344 28.1918116544309569 25.8674761698261264
 19.1580987663389344 28.1918116544309569 28.7524718370672403
 19.1580987663389344 28.1918116544309569 31.6374675043083542
 19.1580987663389344 28.1918116544309569 34.5224631715494681
 16.7819035212374104 26.4654047540205752 14.3274935008616708
 16.7819035212374104 26.4654047540205752 17.2124891681027847
 16.7819035212374104 26.4654047540205752 20.0974848353438986
 16.7819035212374104 26.4654047540205752 22.9824805025850125
 16.7819035212374104 26.4654047540205752 25.8674761698261264
 16.7819035212374104 26.4654047540205752 28.7524718370672403
 16.7819035212374104 26.4654047540205752 31.6374675043083542
 16.7819035212374104 26.4654047540205752 34.5224631715494681
 17.6895293409603056 23.6720197107442303 14.3274935008616708
 17.6895293409603056 23.6720197107442303 17.2124891681027847
 17.6895293409603056 23.6720197107442303 20.0974848353438986
 17.6895293409603056 23.6720197107442303 22.9824805025850125
 17.6895293409603056 23.6720197107442303 25.8674761698261264
 17.6895293409603056 23.6720197107442303 28.7524718370672403
 17.6895293409603056 23.6720197107442303 31.6374675043083542
 17.6895293409603056 23.6720197107442303 34.5224631715494681
 18.5971551606832008 20.8786346674678818 14.3274935008616708
 18.5971551606832008 20.8786346674678818 17.2124891681027847
 18.5971551606832008 20.8786346674678818 20.0974848353438986
 18.5971551606832008 20.8786346674678818 22.9824805025850125
 18.5971551606832008 20.8786346674678818 25.8674761698261264
 18.5971551606832008 20.8786346674678818 28.7524718370672403
 18.5971551606832008 20.8786346674678818 31.6374675043083542
 18.5971551606832008 20.8786346674678818 34.5224631715494681
 19.5047809804060961 18.0852496241915333 14.3274935008616708
 19.5047809804060961 18.0852496241915333 17.2124891681027847
 19.5047809804060961 18.0852496241915333 20.0974848353438986
 19.5047809804060961 18.0852496241915333 22.9824805025850125
 19.5047809804060961 18.0852496241915333 25.8674761698261264
 19.5047809804060961 18.0852496241915333 28.7524718370672403
 19.5047809804060961 18.0852496241915333 31.6374675043083542
 19.5047809804060961 18.0852496241915333 34.5224631715494681
 22.4419198311633501 18.0852496241915333 14.3274935008616708
 22.4419198311633501 18.0852496241915333 17.2124891681027847
 22.4419198311633501 18.0852496241915333 20.0974848353438986
 22.4419198311633501 18.0852496241915333 22.9824805025850125
 22.4419198311633501 18.0852496241915333 25.8674761698261264
 22.4419198311633501 18.0852496241915333 28.7524718370672403
 22.4419198311633501 18.0852496241915333 31.6374675043083542
 22.4419198311633501 18.0852496241915333 34.5224631715494681
 25.3790586819206041 18.0852496241915333 14.3274935008616708
 25.3790586819206041 18.0852496241915333 17.2124891681027847
 25.3790586819206041 18.0852496241915333 20.0974848353438986
 25.3790586819206041 18.0852496241915333 22.9824805025850125
 25.3790586819206041 18.0852496241915333 25.8674761698261264
 25.3790586819206041 18.0852496241915333 28.7524718370672403
 25.3790586819206041 18.0852496241915333 31.6374675043083542
 25.3790586819206041 18.0852496241915333 34.5224631715494681
 28.3161975326778617 18.0852496241915333 14.3274935008616708
 28.3161975326778617 18.0852496241915333 17.2124891681027847
 28.3161975326778617 18.0852496241915333 20.0974848353438986
 28.3161975326778617 18.0852496241915333 22.9824805025850125
 28.3161975326778617 18.0852496241915333 25.8674761698261264
 28.3161975326778617 18.0852496241915333 28.7524718370672403
 28.3161975326778617 18.0852496241915333 31.6374675043083542
 28.3161975326778617 18.0852496241915333 34.5224631715494681
 29.2238233524007569 20.8786346674678818 14.3274935008616708
 29.2238233524007569 20.8786346674678818 17.2124891681027847
 29.2238233524007569 20.8786346674678818 20.0974848353438986
 29.2238233524007569 20.8786346674678818 22.9824805025850125
 29.2238233524007569 20.8786346674678818 25.8674761698261264
 29.2238233524007569 20.8786346674678818 28.7524718370672403
 29.2238233524007569 20.8786346674678818 31.6374675043083542
 29.2238233524007569 20.8786346674678818 34.5224631715494681
 30.1314491721236521 23.6720197107442267 14.3274935008616708
 30.1314491721236521 23.6720197107442267 17.2124891681027847
 30.1314491721236521 23.6720197107442267 20.0974848353438986
 30.1314491721236521 23.6720197107442267 22.9824805025850125
 30.1314491721236521 23.6720197107442267 25.8674761698261264
 30.1314491721236521 23.6720197107442267 28.7524718370672403
 30.1314491721236521 23.6720197107442267 31.6374675043083542
 30.1314491721236521 23.6720197107442267 34.5224631715494681
 33.4152702369480679 27.2374773912490369 15.7699913344822278
 33.4152702369480679 27.2374773912490369 18.6549870017233417
 33.4152702369480679 27.2374773912490369 21.5399826689644556
 33.4152702369480679 27.2374773912490369 24.4249783362055695
 33.4152702369480679 27.2374773912490369 27.3099740034466834
 33.4152702369480679 27.2374773912490369 30.1949696706877972
 33.4152702369480679 27.2374773912490369 33.0799653379289111
 31.0390749918465474 28.9638842916594150 15.7699913344822278
 31.0390749918465474 28.9638842916594150 18.6549870017233417
 31.0390749918465474 28.9638842916594150 21.5399826689644556
 31.0390749918465474 28.9638842916594150 24.4249783362055695
 31.0390749918465474 28.9638842916594150 27.3099740034466834
 31.0390749918465474 28.9638842916594150 30.1949696706877972
 31.0390749918465474 28.9638842916594150 33.0799653379289111
 28.6628797467450234 30.6902911920697932 15.7699913344822278
 28.6628797467450234 30.6902911920697932 18.6549870017233417
 28.6628797467450234 30.6902911920697932 21.5399826689644556
 28.6628797467450234 30.6902911920697932 24.4249783362055695
 28.6628797467450234 30.6902911920697932 27.3099740034466834
 28.6628797467450234 30.6902911920697932 30.1949696706877972
 28.6628797467450234 30.6902911920697932 33.0799653379289111
 26.2866845016435029 32.4166980924801749 15.7699913344822278
 26.2866845016435029 32.4166980924801749 18.6549870017233417
 26.2866845016435029 32.4166980924801749 21.5399826689644556
 26.2866845016435029 32.4166980924801749 24.4249783362055695
 26.2866845016435029 32.4166980924801749 27.3099740034466834
 26.2866845016435029 32.4166980924801749 30.1949696706877972
 26.2866845016435029 32.4166980924801749 33.0799653379289111
 23.9104892565419789 34.1431049928905566 15.7699913344822278
 23.9104892565419789 34.1431049928905566 18.6549870017233417
 23.9104892565419789 34.1431049928905566 21.5399826689644556
 23.9104892565419789 34.1431049928905566 24.4249783362055695
 23.9104892565419789 34.1431049928905566 27.3099740034466834
 23.9104892565419789 34.1431049928905566 30.1949696706877972
 23.9104892565419789 34.1431049928905566 33.0799653379289111
 21.5342940114404584 32.4166980924801749 15.7699913344822278
 21.5342940114404584 32.4166980924801749 18.6549870017233417
 21.5342940114404584 32.4166980924801749 21.5399826689644556
 21.5342940114404584 32.4166980924801749 24.4249783362055695
 21.5342940114404584 32.4166980924801749 27.3099740034466834
 21.5342940114404584 32.4166980924801749 30.1949696706877972
 21.5342940114404584 32.4166980924801749 33.0799653379289111
 19.1580987663389344 30.6902911920697967 15.7699913344822278
 19.1580987663389344 30.6902911920697967 18.6549870017233417
 19.1580987663389344 30.6902911920697967 21.5399826689644556
 19.1580987663389344 30.6902911920697967 24.4249783362055695
 19.1580987663389344 30.6902911920697967 27.3099740034466834
 19.1580987663389344 30.6902911920697967 30.1949696706877972
 19.1580987663389344 30.6902911920697967 33.0799653379289111
 16.7819035212374104 28.9638842916594186 15.7699913344822278
 16.7819035212374104 28.9638842916594186 18.6549870017233417
 16.7819035212374104 28.9638842916594186 21.5399826689644556
 16.7819035212374104 28.9638842916594186 24.4249783362055695
 16.7819035212374104 28.9638842916594186 27.3099740034466834
 16.7819035212374104 28.9638842916594186 30.1949696706877972
 16.7819035212374104 28.9638842916594186 33.0799653379289111
 14.4057082761358881 27.2374773912490404 15.7699913344822278
 14.4057082761358881 27.2374773912490404 18.6549870017233417
 14.4057082761358881 27.2374773912490404 21.5399826689644556
 14.4057082761358881 27.2374773912490404 24.4249783362055695
 14.4057082761358881 27.2374773912490404 27.3099740034466834
 14.4057082761358881 27.2374773912490404 30.1949696706877972
 14.4057082761358881 27.2374773912490404 33.0799653379289111
 15.3133340958587816 24.4440923479726919 15.7699913344822278
 15.3133340958587816 24.4440923479726919 18.6549870017233417
 15.3133340958587816 24.4440923479726919 21.5399826689644556
 15.3133340958587816 24.4440923479726919 24.4249783362055695
 15.3133340958587816 24.4440923479726919 27.3099740034466834
 15.3133340958587816 24.4440923479726919 30.1949696706877972
 15.3133340958587816 24.4440923479726919 33.0799653379289111
 16.2209599155816768 21.6507073046963470 15.7699913344822278
 16.2209599155816768 21.6507073046963470 18.6549870017233417
 16.2209599155816768 21.6507073046963470 21.5399826689644556
 16.2209599155816768 21.6507073046963470 24.4249783362055695
 16.2209599155816768 21.6507073046963470 27.3099740034466834
 16.2209599155816768 21.6507073046963470 30.1949696706877972
 16.2209599155816768 21.6507073046963470 33.0799653379289111
 17.1285857353045721 18.8573222614199985 15.7699913344822278
 17.1285857353045721 18.8573222614199985 18.6549870017233417
 17.1285857353045721 18.8573222614199985 21.5399826689644556
 17.1285857353045721 18.8573222614199985 24.4249783362055695
 17.1285857353045721 18.8573222614199985 27.3099740034466834
 17.1285857353045721 18.8573222614199985 30.1949696706877972
 17.1285857353045721 18.8573222614199985 33.0799653379289111
 18.0362115550274638 16.0639372181436499 15.7699913344822278
 18.0362115550274638 16.0639372181436499 18.6549870017233417
 18.0362115550274638 16.0639372181436499 21.5399826689644556
 18.0362115550274638 16.0639372181436499 24.4249783362055695
 18.0362115550274638 16.0639372181436499 27.3099740034466834
 18.0362115550274638 16.0639372181436499 30.1949696706877972
 18.0362115550274638 16.0639372181436499 33.0799653379289111
 20.9733504057847213 16.0639372181436499 15.7699913344822278
 20.9733504057847213 16.0639372181436499 18.6549870017233417
 20.9733504057847213 16.0639372181436499 21.5399826689644556
 20.9733504057847213 16.0639372181436499 24.4249783362055695
 20.9733504057847213 16.0639372181436499 27.3099740034466834
 20.9733504057847213 16.0639372181436499 30.1949696706877972
 20.9733504057847213 16.0639372181436499 33.0799653379289111
 23.9104892565419789 16.0639372181436499 15.7699913344822278
 23.9104892565419789 16.0639372181436499 18.6549870017233417
 23.9104892565419789 16.0639372181436499 21.5399826689644556
 23.9104892565419789 16.0639372181436499 24.4249783362055695
 23.9104892565419789 16.0639372181436499 27.3099740034466834
 23.9104892565419789 16.0639372181436499 30.1949696706877972
 23.9104892565419789 16.0639372181436499 33.0799653379289111
 26.8476281072992329 16.0639372181436499 15.7699913344822278
 26.8476281072992329 16.0639372181436499 18.6549870017233417
 26.8476281072992329 16.0639372181436499 21.5399826689644556
 26.8476281072992329 16.0639372181436499 24.4249783362055695
 26.8476281072992329 16.0639372181436499 27.3099740034466834
 26.8476281072992329 16.0639372181436499 30.1949696706877972
 26.8476281072992329 16.0639372181436499 33.0799653379289111
 29.7847669580564904 16.0639372181436499 15.7699913344822278
 29.7847669580564904 16.0639372181436499 18.6549870017233417
 29.7847669580564904 16.0639372181436499 21.5399826689644556
 29.7847669580564904 16.0639372181436499 24.4249783362055695
 29.7847669580564904 16.0639372181436499 27.3099740034466834
 29.7847669580564904 16.0639372181436499 30.1949696706877972
 29.7847669580564904 16.0639372181436499 33.0799653379289111
 30.6923927777793821 18.8573222614199949 15.7699913344822278
 30.6923927777793821 18.8573222614199949 18.6549870017233417
 30.6923927777793821 18.8573222614199949 21.5399826689644556
 30.6923927777793821 18.8573222614199949 24.4249783362055695
 30.6923927777793821 18.8573222614199949 27.3099740034466834
 30.6923927777793821 18.8573222614199949 30.1949696706877972
 30.6923927777793821 18.8573222614199949 33.0799653379289111
 31.6000185975022774 21.6507073046963434 15.7699913344822278
 31.6000185975022774 21.6507073046963434 18.6549870017233417
 31.6000185975022774 21.6507073046963434 21.5399826689644556
 31.6000185975022774 21.6507073046963434 24.4249783362055695
 31.6000185975022774 21.6507073046963434 27.3099740034466834
 31.6000185975022774 21.6507073046963434 30.1949696706877972
 31.6000185975022774 21.6507073046963434 33.0799653379289111
 32.5076444172251726 24.4440923479726919 15.7699913344822278
 32.5076444172251726 24.4440923479726919 18.6549870017233417
 32.5076444172251726 24.4440923479726919 21.5399826689644556
 32.5076444172251726 24.4440923479726919 24.4249783362055695
 32.5076444172251726 24.4440923479726919 27.3099740034466834
 32.5076444172251726 24.4440923479726919 30.1949696706877972
 32.5076444172251726 24.4440923479726919 33.0799653379289111
 33.4152702369480679 29.7359569288878802 17.2124891681027847
 33.4152702369480679 29.7359569288878802 20.0974848353438986
 33.4152702369480679 29.7359569288878802 22.9824805025850125
 33.4152702369480679 29.7359569288878802 25.8674761698261264
 33.4152702369480679 29.7359569288878802 28.7524718370672403
 33.4152702369480679 29.7359569288878802 31.6374675043083542
 31.0390749918465474 31.4623638292982584 17.2124891681027847
 31.0390749918465474 31.4623638292982584 20.0974848353438986
 31.0390749918465474 31.4623638292982584 22.9824805025850125
 31.0390749918465474 31.4623638292982584 25.8674761698261264
 31.0390749918465474 31.4623638292982584 28.7524718370672403
 31.0390749918465474 31.4623638292982584 31.6374675043083542
 28.6628797467450269 33.1887707297086365 17.2124891681027847
 28.6628797467450269 33.1887707297086365 20.0974848353438986
 28.6628797467450269 33.1887707297086365 22.9824805025850125
 28.6628797467450269 33.1887707297086365 25.8674761698261264
 28.6628797467450269 33.1887707297086365 28.7524718370672403
 28.6628797467450269 33.1887707297086365 31.6374675043083542
 26.2866845016435029 34.9151776301190182 17.2124891681027847
 26.2866845016435029 34.9151776301190182 20.0974848353438986
 26.2866845016435029 34.9151776301190182 22.9824805025850125
 26.2866845016435029 34.9151776301190182 25.8674761698261264
 26.2866845016435029 34.9151776301190182 28.7524718370672403
 26.2866845016435029 34.9151776301190182 31.6374675043083542
 21.5342940114404584 34.9151776301190182 17.2124891681027847
 21.5342940114404584 34.9151776301190182 20.0974848353438986
 21.5342940114404584 34.9151776301190182 22.9824805025850125
 21.5342940114404584 34.9151776301190182 25.8674761698261264
 21.5342940114404584 34.9151776301190182 28.7524718370672403
 21.5342940114404584 34.9151776301190182 31.6374675043083542
 19.1580987663389344 33.1887707297086365 17.2124891681027847
 19.1580987663389344 33.1887707297086365 20.0974848353438986
 19.1580987663389344 33.1887707297086365 22.9824805025850125
 19.1580987663389344 33.1887707297086365 25.8674761698261264
 19.1580987663389344 33.1887707297086365 28.7524718370672403
 19.1580987663389344 33.1887707297086365 31.6374675043083542
 16.7819035212374104 31.4623638292982619 17.2124891681027847
 16.7819035212374104 31.4623638292982619 20.0974848353438986
 16.7819035212374104 31.4623638292982619 22.9824805025850125
 16.7819035212374104 31.4623638292982619 25.8674761698261264
 16.7819035212374104 31.4623638292982619 28.7524718370672403
 16.7819035212374104 31.4623638292982619 31.6374675043083542
 14.4057082761358881 29.7359569288878802 17.2124891681027847
 14.4057082761358881 29.7359569288878802 20.0974848353438986
 14.4057082761358881 29.7359569288878802 22.9824805025850125
 14.4057082761358881 29.7359569288878802 25.8674761698261264
 14.4057082761358881 29.7359569288878802 28.7524718370672403
 14.4057082761358881 29.7359569288878802 31.6374675043083542
 12.9371388507572593 25.2161649852011571 17.2124891681027847
 12.9371388507572593 25.2161649852011571 20.0974848353438986
 12.9371388507572593 25.2161649852011571 22.9824805025850125
 12.9371388507572593 25.2161649852011571 25.8674761698261264
 12.9371388507572593 25.2161649852011571 28.7524718370672403
 12.9371388507572593 25.2161649852011571 31.6374675043083542
 13.8447646704801528 22.4227799419248086 17.2124891681027847
 13.8447646704801528 22.4227799419248086 20.0974848353438986
 13.8447646704801528 22.4227799419248086 22.9824805025850125
 13.8447646704801528 22.4227799419248086 25.8674761698261264
 13.8447646704801528 22.4227799419248086 28.7524718370672403
 13.8447646704801528 22.4227799419248086 31.6374675043083542
 14.7523904902030480 19.6293948986484637 17.2124891681027847
 14.7523904902030480 19.6293948986484637 20.0974848353438986
 14.7523904902030480 19.6293948986484637 22.9824805025850125
 14.7523904902030480 19.6293948986484637 25.8674761698261264
 14.7523904902030480 19.6293948986484637 28.7524718370672403
 14.7523904902030480 19.6293948986484637 31.6374675043083542
 15.6600163099259433 16.8360098553721151 17.2124891681027847
 15.6600163099259433 16.8360098553721151 20.0974848353438986
 15.6600163099259433 16.8360098553721151 22.9824805025850125
 15.6600163099259433 16.8360098553721151 25.8674761698261264
 15.6600163099259433 16.8360098553721151 28.7524718370672403
 15.6600163099259433 16.8360098553721151 31.6374675043083542
 19.5047809804060925 14.0426248120957666 17.2124891681027847
 19.5047809804060925 14.0426248120957666 20.0974848353438986
 19.5047809804060925 14.0426248120957666 22.9824805025850125
 19.5047809804060925 14.0426248120957666 25.8674761698261264