Au 
 1.0000000000000000
    67.9524276852075957    0.0000000000000000    0.0000000000000000
     0.0000000000000000   65.6054688221888114    0.0000000000000000
     0.0000000000000000    0.0000000000000000   57.5049436741344806
 Au 
 1824
Cartesian
 33.9762138426037978 34.2557488725746069 10.0000000000000000
 33.9762138426037978 34.2557488725746069 12.8849956672411139
 33.9762138426037978 34.2557488725746069 15.7699913344822278
 33.9762138426037978 34.2557488725746069 18.6549870017233417
 33.9762138426037978 34.2557488725746069 21.5399826689644556
 33.9762138426037978 34.2557488725746069 24.4249783362055695
 33.9762138426037978 34.2557488725746069 27.3099740034466834
 33.9762138426037978 34.2557488725746069 30.1949696706877972
 33.9762138426037978 34.2557488725746069 33.0799653379289111
 33.9762138426037978 34.2557488725746069 35.9649610051700250
 33.9762138426037978 34.2557488725746069 38.8499566724111389
 33.9762138426037978 34.2557488725746069 41.7349523396522528
 33.9762138426037978 34.2557488725746069 44.6199480068933667
 33.9762138426037978 34.2557488725746069 47.5049436741344806
 36.3524090877053183 35.0278215098030685 11.4424978336205569
 36.3524090877053183 35.0278215098030685 14.3274935008616708
 36.3524090877053183 35.0278215098030685 17.2124891681027847
 36.3524090877053183 35.0278215098030685 20.0974848353438986
 36.3524090877053183 35.0278215098030685 22.9824805025850125
 36.3524090877053183 35.0278215098030685 25.8674761698261264
 36.3524090877053183 35.0278215098030685 28.7524718370672403
 36.3524090877053183 35.0278215098030685 31.6374675043083542
 36.3524090877053183 35.0278215098030685 34.5224631715494681
 36.3524090877053183 35.0278215098030685 37.4074588387905820
 36.3524090877053183 35.0278215098030685 40.2924545060316959
 36.3524090877053183 35.0278215098030685 43.1774501732728098
 36.3524090877053183 35.0278215098030685 46.0624458405139237
 33.9762138426037978 36.7542284102134502 11.4424978336205569
 33.9762138426037978 36.7542284102134502 14.3274935008616708
 33.9762138426037978 36.7542284102134502 17.2124891681027847
 33.9762138426037978 36.7542284102134502 20.0974848353438986
 33.9762138426037978 36.7542284102134502 22.9824805025850125
 33.9762138426037978 36.7542284102134502 25.8674761698261264
 33.9762138426037978 36.7542284102134502 28.7524718370672403
 33.9762138426037978 36.7542284102134502 31.6374675043083542
 33.9762138426037978 36.7542284102134502 34.5224631715494681
 33.9762138426037978 36.7542284102134502 37.4074588387905820
 33.9762138426037978 36.7542284102134502 40.2924545060316959
 33.9762138426037978 36.7542284102134502 43.1774501732728098
 33.9762138426037978 36.7542284102134502 46.0624458405139237
 31.6000185975022738 35.0278215098030685 11.4424978336205569
 31.6000185975022738 35.0278215098030685 14.3274935008616708
 31.6000185975022738 35.0278215098030685 17.2124891681027847
 31.6000185975022738 35.0278215098030685 20.0974848353438986
 31.6000185975022738 35.0278215098030685 22.9824805025850125
 31.6000185975022738 35.0278215098030685 25.8674761698261264
 31.6000185975022738 35.0278215098030685 28.7524718370672403
 31.6000185975022738 35.0278215098030685 31.6374675043083542
 31.6000185975022738 35.0278215098030685 34.5224631715494681
 31.6000185975022738 35.0278215098030685 37.4074588387905820
 31.6000185975022738 35.0278215098030685 40.2924545060316959
 31.6000185975022738 35.0278215098030685 43.1774501732728098
 31.6000185975022738 35.0278215098030685 46.0624458405139237
 32.5076444172251726 32.2344364665267236 11.4424978336205569
 32.5076444172251726 32.2344364665267236 14.3274935008616708
 32.5076444172251726 32.2344364665267236 17.2124891681027847
 32.5076444172251726 32.2344364665267236 20.0974848353438986
 32.5076444172251726 32.2344364665267236 22.9824805025850125
 32.5076444172251726 32.2344364665267236 25.8674761698261264
 32.5076444172251726 32.2344364665267236 28.7524718370672403
 32.5076444172251726 32.2344364665267236 31.6374675043083542
 32.5076444172251726 32.2344364665267236 34.5224631715494681
 32.5076444172251726 32.2344364665267236 37.4074588387905820
 32.5076444172251726 32.2344364665267236 40.2924545060316959
 32.5076444172251726 32.2344364665267236 43.1774501732728098
 32.5076444172251726 32.2344364665267236 46.0624458405139237
 35.4447832679824231 32.2344364665267236 11.4424978336205569
 35.4447832679824231 32.2344364665267236 14.3274935008616708
 35.4447832679824231 32.2344364665267236 17.2124891681027847
 35.4447832679824231 32.2344364665267236 20.0974848353438986
 35.4447832679824231 32.2344364665267236 22.9824805025850125
 35.4447832679824231 32.2344364665267236 25.8674761698261264
 35.4447832679824231 32.2344364665267236 28.7524718370672403
 35.4447832679824231 32.2344364665267236 31.6374675043083542
 35.4447832679824231 32.2344364665267236 34.5224631715494681
 35.4447832679824231 32.2344364665267236 37.4074588387905820
 35.4447832679824231 32.2344364665267236 40.2924545060316959
 35.4447832679824231 32.2344364665267236 43.1774501732728098
 35.4447832679824231 32.2344364665267236 46.0624458405139237
 38.7286043328068459 35.7998941470315302 12.8849956672411139
 38.7286043328068459 35.7998941470315302 15.7699913344822278
 38.7286043328068459 35.7998941470315302 18.6549870017233417
 38.7286043328068459 35.7998941470315302 21.5399826689644556
 38.7286043328068459 35.7998941470315302 24.4249783362055695
 38.7286043328068459 35.7998941470315302 27.3099740034466834
 38.7286043328068459 35.7998941470315302 30.1949696706877972
 38.7286043328068459 35.7998941470315302 33.0799653379289111
 38.7286043328068459 35.7998941470315302 35.9649610051700250
 38.7286043328068459 35.7998941470315302 38.8499566724111389
 38.7286043328068459 35.7998941470315302 41.7349523396522528
 38.7286043328068459 35.7998941470315302 44.6199480068933667
 36.3524090877053183 37.5263010474419119 12.8849956672411139
 36.3524090877053183 37.5263010474419119 15.7699913344822278
 36.3524090877053183 37.5263010474419119 18.6549870017233417
 36.3524090877053183 37.5263010474419119 21.5399826689644556
 36.3524090877053183 37.5263010474419119 24.4249783362055695
 36.3524090877053183 37.5263010474419119 27.3099740034466834
 36.3524090877053183 37.5263010474419119 30.1949696706877972
 36.3524090877053183 37.5263010474419119 33.0799653379289111
 36.3524090877053183 37.5263010474419119 35.9649610051700250
 36.3524090877053183 37.5263010474419119 38.8499566724111389
 36.3524090877053183 37.5263010474419119 41.7349523396522528
 36.3524090877053183 37.5263010474419119 44.6199480068933667
 33.9762138426037978 39.2527079478522865 12.8849956672411139
 33.9762138426037978 39.2527079478522865 15.7699913344822278
 33.9762138426037978 39.2527079478522865 18.6549870017233417
 33.9762138426037978 39.2527079478522865 21.5399826689644556
 33.9762138426037978 39.2527079478522865 24.4249783362055695
 33.9762138426037978 39.2527079478522865 27.3099740034466834
 33.9762138426037978 39.2527079478522865 30.1949696706877972
 33.9762138426037978 39.2527079478522865 33.0799653379289111
 33.9762138426037978 39.2527079478522865 35.9649610051700250
 33.9762138426037978 39.2527079478522865 38.8499566724111389
 33.9762138426037978 39.2527079478522865 41.7349523396522528
 33.9762138426037978 39.2527079478522865 44.6199480068933667
 31.6000185975022738 37.5263010474419119 12.8849956672411139
 31.6000185975022738 37.5263010474419119 15.7699913344822278
 31.6000185975022738 37.5263010474419119 18.6549870017233417
 31.6000185975022738 37.5263010474419119 21.5399826689644556
 31.6000185975022738 37.5263010474419119 24.4249783362055695
 31.6000185975022738 37.5263010474419119 27.3099740034466834
 31.6000185975022738 37.5263010474419119 30.1949696706877972
 31.6000185975022738 37.5263010474419119 33.0799653379289111
 31.6000185975022738 37.5263010474419119 35.9649610051700250
 31.6000185975022738 37.5263010474419119 38.8499566724111389
 31.6000185975022738 37.5263010474419119 41.7349523396522528
 31.6000185975022738 37.5263010474419119 44.6199480068933667
 29.2238233524007534 35.7998941470315302 12.8849956672411139
 29.2238233524007534 35.7998941470315302 15.7699913344822278
 29.2238233524007534 35.7998941470315302 18.6549870017233417
 29.2238233524007534 35.7998941470315302 21.5399826689644556
 29.2238233524007534 35.7998941470315302 24.4249783362055695
 29.2238233524007534 35.7998941470315302 27.3099740034466834
 29.2238233524007534 35.7998941470315302 30.1949696706877972
 29.2238233524007534 35.7998941470315302 33.0799653379289111
 29.2238233524007534 35.7998941470315302 35.9649610051700250
 29.2238233524007534 35.7998941470315302 38.8499566724111389
 29.2238233524007534 35.7998941470315302 41.7349523396522528
 29.2238233524007534 35.7998941470315302 44.6199480068933667
 30.1314491721236450 33.0065091037551852 12.8849956672411139
 30.1314491721236450 33.0065091037551852 15.7699913344822278
 30.1314491721236450 33.0065091037551852 18.6549870017233417
 30.1314491721236450 33.0065091037551852 21.5399826689644556
 30.1314491721236450 33.0065091037551852 24.4249783362055695
 30.1314491721236450 33.0065091037551852 27.3099740034466834
 30.1314491721236450 33.0065091037551852 30.1949696706877972
 30.1314491721236450 33.0065091037551852 33.0799653379289111
 30.1314491721236450 33.0065091037551852 35.9649610051700250
 30.1314491721236450 33.0065091037551852 38.8499566724111389
 30.1314491721236450 33.0065091037551852 41.7349523396522528
 30.1314491721236450 33.0065091037551852 44.6199480068933667
 31.0390749918465403 30.2131240604788402 12.8849956672411139
 31.0390749918465403 30.2131240604788402 15.7699913344822278
 31.0390749918465403 30.2131240604788402 18.6549870017233417
 31.0390749918465403 30.2131240604788402 21.5399826689644556
 31.0390749918465403 30.2131240604788402 24.4249783362055695
 31.0390749918465403 30.2131240604788402 27.3099740034466834
 31.0390749918465403 30.2131240604788402 30.1949696706877972
 31.0390749918465403 30.2131240604788402 33.0799653379289111
 31.0390749918465403 30.2131240604788402 35.9649610051700250
 31.0390749918465403 30.2131240604788402 38.8499566724111389
 31.0390749918465403 30.2131240604788402 41.7349523396522528
 31.0390749918465403 30.2131240604788402 44.6199480068933667
 33.9762138426037978 30.2131240604788402 12.8849956672411139
 33.9762138426037978 30.2131240604788402 15.7699913344822278
 33.9762138426037978 30.2131240604788402 18.6549870017233417
 33.9762138426037978 30.2131240604788402 21.5399826689644556
 33.9762138426037978 30.2131240604788402 24.4249783362055695
 33.9762138426037978 30.2131240604788402 27.3099740034466834
 33.9762138426037978 30.2131240604788402 30.1949696706877972
 33.9762138426037978 30.2131240604788402 33.0799653379289111
 33.9762138426037978 30.2131240604788402 35.9649610051700250
 33.9762138426037978 30.2131240604788402 38.8499566724111389
 33.9762138426037978 30.2131240604788402 41.7349523396522528
 33.9762138426037978 30.2131240604788402 44.6199480068933667
 36.9133526933610554 30.2131240604788402 12.8849956672411139
 36.9133526933610554 30.2131240604788402 15.7699913344822278
 36.9133526933610554 30.2131240604788402 18.6549870017233417
 36.9133526933610554 30.2131240604788402 21.5399826689644556
 36.9133526933610554 30.2131240604788402 24.4249783362055695
 36.9133526933610554 30.2131240604788402 27.3099740034466834
 36.9133526933610554 30.2131240604788402 30.1949696706877972
 36.9133526933610554 30.2131240604788402 33.0799653379289111
 36.9133526933610554 30.2131240604788402 35.9649610051700250
 36.9133526933610554 30.2131240604788402 38.8499566724111389
 36.9133526933610554 30.2131240604788402 41.7349523396522528
 36.9133526933610554 30.2131240604788402 44.6199480068933667
 37.8209785130839506 33.0065091037551852 12.8849956672411139
 37.8209785130839506 33.0065091037551852 15.7699913344822278
 37.8209785130839506 33.0065091037551852 18.6549870017233417
 37.8209785130839506 33.0065091037551852 21.5399826689644556
 37.8209785130839506 33.0065091037551852 24.4249783362055695
 37.8209785130839506 33.0065091037551852 27.3099740034466834
 37.8209785130839506 33.0065091037551852 30.1949696706877972
 37.8209785130839506 33.0065091037551852 33.0799653379289111
 37.8209785130839506 33.0065091037551852 35.9649610051700250
 37.8209785130839506 33.0065091037551852 38.8499566724111389
 37.8209785130839506 33.0065091037551852 41.7349523396522528
 37.8209785130839506 33.0065091037551852 44.6199480068933667
 41.1047995779083664 36.5719667842599918 14.3274935008616708
 41.1047995779083664 36.5719667842599918 17.2124891681027847
 41.1047995779083664 36.5719667842599918 20.0974848353438986
 41.1047995779083664 36.5719667842599918 22.9824805025850125
 41.1047995779083664 36.5719667842599918 25.8674761698261264
 41.1047995779083664 36.5719667842599918 28.7524718370672403
 41.1047995779083664 36.5719667842599918 31.6374675043083542
 41.1047995779083664 36.5719667842599918 34.5224631715494681
 41.1047995779083664 36.5719667842599918 37.4074588387905820
 41.1047995779083664 36.5719667842599918 40.2924545060316959
 41.1047995779083664 36.5719667842599918 43.1774501732728098
 38.7286043328068459 38.2983736846703735 14.3274935008616708
 38.7286043328068459 38.2983736846703735 17.2124891681027847
 38.7286043328068459 38.2983736846703735 20.0974848353438986
 38.7286043328068459 38.2983736846703735 22.9824805025850125
 38.7286043328068459 38.2983736846703735 25.8674761698261264
 38.7286043328068459 38.2983736846703735 28.7524718370672403
 38.7286043328068459 38.2983736846703735 31.6374675043083542
 38.7286043328068459 38.2983736846703735 34.5224631715494681
 38.7286043328068459 38.2983736846703735 37.4074588387905820
 38.7286043328068459 38.2983736846703735 40.2924545060316959
 38.7286043328068459 38.2983736846703735 43.1774501732728098
 36.3524090877053183 40.0247805850807552 14.3274935008616708
 36.3524090877053183 40.0247805850807552 17.2124891681027847
 36.3524090877053183 40.0247805850807552 20.0974848353438986
 36.3524090877053183 40.0247805850807552 22.9824805025850125
 36.3524090877053183 40.0247805850807552 25.8674761698261264
 36.3524090877053183 40.0247805850807552 28.7524718370672403
 36.3524090877053183 40.0247805850807552 31.6374675043083542
 36.3524090877053183 40.0247805850807552 34.5224631715494681
 36.3524090877053183 40.0247805850807552 37.4074588387905820
 36.3524090877053183 40.0247805850807552 40.2924545060316959
 36.3524090877053183 40.0247805850807552 43.1774501732728098
 33.9762138426037978 41.7511874854911298 14.3274935008616708
 33.9762138426037978 41.7511874854911298 17.2124891681027847
 33.9762138426037978 41.7511874854911298 20.0974848353438986
 33.9762138426037978 41.7511874854911298 22.9824805025850125
 33.9762138426037978 41.7511874854911298 25.8674761698261264
 33.9762138426037978 41.7511874854911298 28.7524718370672403
 33.9762138426037978 41.7511874854911298 31.6374675043083542
 33.9762138426037978 41.7511874854911298 34.5224631715494681
 33.9762138426037978 41.7511874854911298 37.4074588387905820
 33.9762138426037978 41.7511874854911298 40.2924545060316959
 33.9762138426037978 41.7511874854911298 43.1774501732728098
 31.6000185975022774 40.0247805850807552 14.3274935008616708
 31.6000185975022774 40.0247805850807552 17.2124891681027847
 31.6000185975022774 40.0247805850807552 20.0974848353438986
 31.6000185975022774 40.0247805850807552 22.9824805025850125
 31.6000185975022774 40.0247805850807552 25.8674761698261264
 31.6000185975022774 40.0247805850807552 28.7524718370672403
 31.6000185975022774 40.0247805850807552 31.6374675043083542
 31.6000185975022774 40.0247805850807552 34.5224631715494681
 31.6000185975022774 40.0247805850807552 37.4074588387905820
 31.6000185975022774 40.0247805850807552 40.2924545060316959
 31.6000185975022774 40.0247805850807552 43.1774501732728098
 29.2238233524007534 38.2983736846703735 14.3274935008616708
 29.2238233524007534 38.2983736846703735 17.2124891681027847
 29.2238233524007534 38.2983736846703735 20.0974848353438986
 29.2238233524007534 38.2983736846703735 22.9824805025850125
 29.2238233524007534 38.2983736846703735 25.8674761698261264
 29.2238233524007534 38.2983736846703735 28.7524718370672403
 29.2238233524007534 38.2983736846703735 31.6374675043083542
 29.2238233524007534 38.2983736846703735 34.5224631715494681
 29.2238233524007534 38.2983736846703735 37.4074588387905820
 29.2238233524007534 38.2983736846703735 40.2924545060316959
 29.2238233524007534 38.2983736846703735 43.1774501732728098
 26.8476281072992293 36.5719667842599989 14.3274935008616708
 26.8476281072992293 36.5719667842599989 17.2124891681027847
 26.8476281072992293 36.5719667842599989 20.0974848353438986
 26.8476281072992293 36.5719667842599989 22.9824805025850125
 26.8476281072992293 36.5719667842599989 25.8674761698261264
 26.8476281072992293 36.5719667842599989 28.7524718370672403
 26.8476281072992293 36.5719667842599989 31.6374675043083542
 26.8476281072992293 36.5719667842599989 34.5224631715494681
 26.8476281072992293 36.5719667842599989 37.4074588387905820
 26.8476281072992293 36.5719667842599989 40.2924545060316959
 26.8476281072992293 36.5719667842599989 43.1774501732728098
 27.7552539270221246 33.7785817409836469 14.3274935008616708
 27.7552539270221246 33.7785817409836469 17.2124891681027847
 27.7552539270221246 33.7785817409836469 20.0974848353438986
 27.7552539270221246 33.7785817409836469 22.9824805025850125
 27.7552539270221246 33.7785817409836469 25.8674761698261264
 27.7552539270221246 33.7785817409836469 28.7524718370672403
 27.7552539270221246 33.7785817409836469 31.6374675043083542
 27.7552539270221246 33.7785817409836469 34.5224631715494681
 27.7552539270221246 33.7785817409836469 37.4074588387905820
 27.7552539270221246 33.7785817409836469 40.2924545060316959
 27.7552539270221246 33.7785817409836469 43.1774501732728098
 28.6628797467450198 30.9851966977073019 14.3274935008616708
 28.6628797467450198 30.9851966977073019 17.2124891681027847
 28.6628797467450198 30.9851966977073019 20.0974848353438986
 28.6628797467450198 30.9851966977073019 22.9824805025850125
 28.6628797467450198 30.9851966977073019 25.8674761698261264
 28.6628797467450198 30.9851966977073019 28.7524718370672403
 28.6628797467450198 30.9851966977073019 31.6374675043083542
 28.6628797467450198 30.9851966977073019 34.5224631715494681
 28.6628797467450198 30.9851966977073019 37.4074588387905820
 28.6628797467450198 30.9851966977073019 40.2924545060316959
 28.6628797467450198 30.9851966977073019 43.1774501732728098
 29.5705055664679151 28.1918116544309569 14.3274935008616708
 29.5705055664679151 28.1918116544309569 17.2124891681027847
 29.5705055664679151 28.1918116544309569 20.0974848353438986
 29.5705055664679151 28.1918116544309569 22.9824805025850125
 29.5705055664679151 28.1918116544309569 25.8674761698261264
 29.5705055664679151 28.1918116544309569 28.7524718370672403
 29.5705055664679151 28.1918116544309569 31.6374675043083542
 29.5705055664679151 28.1918116544309569 34.5224631715494681
 29.5705055664679151 28.1918116544309569 37.4074588387905820
 29.5705055664679151 28.1918116544309569 40.2924545060316959
 29.5705055664679151 28.1918116544309569 43.1774501732728098
 32.5076444172251655 28.1918116544309569 14.3274935008616708
 32.5076444172251655 28.1918116544309569 17.2124891681027847
 32.5076444172251655 28.1918116544309569 20.0974848353438986
 32.5076444172251655 28.1918116544309569 22.9824805025850125
 32.5076444172251655 28.1918116544309569 25.8674761698261264
 32.5076444172251655 28.1918116544309569 28.7524718370672403
 32.5076444172251655 28.1918116544309569 31.6374675043083542
 32.5076444172251655 28.1918116544309569 34.5224631715494681
 32.5076444172251655 28.1918116544309569 37.4074588387905820
 32.5076444172251655 28.1918116544309569 40.2924545060316959
 32.5076444172251655 28.1918116544309569 43.1774501732728098
 35.4447832679824231 28.1918116544309569 14.3274935008616708
 35.4447832679824231 28.1918116544309569 17.2124891681027847
 35.4447832679824231 28.1918116544309569 20.0974848353438986
 35.4447832679824231 28.1918116544309569 22.9824805025850125
 35.4447832679824231 28.1918116544309569 25.8674761698261264
 35.4447832679824231 28.1918116544309569 28.7524718370672403
 35.4447832679824231 28.1918116544309569 31.6374675043083542
 35.4447832679824231 28.1918116544309569 34.5224631715494681
 35.4447832679824231 28.1918116544309569 37.4074588387905820
 35.4447832679824231 28.1918116544309569 40.2924545060316959
 35.4447832679824231 28.1918116544309569 43.1774501732728098
 38.3819221187396806 28.1918116544309534 14.3274935008616708
 38.3819221187396806 28.1918116544309534 17.2124891681027847
 38.3819221187396806 28.1918116544309534 20.0974848353438986
 38.3819221187396806 28.1918116544309534 22.9824805025850125
 38.3819221187396806 28.1918116544309534 25.8674761698261264
 38.3819221187396806 28.1918116544309534 28.7524718370672403
 38.3819221187396806 28.1918116544309534 31.6374675043083542
 38.3819221187396806 28.1918116544309534 34.5224631715494681
 38.3819221187396806 28.1918116544309534 37.4074588387905820
 38.3819221187396806 28.1918116544309534 40.2924545060316959
 38.3819221187396806 28.1918116544309534 43.1774501732728098
 39.2895479384625759 30.9851966977073019 14.3274935008616708
 39.2895479384625759 30.9851966977073019 17.2124891681027847
 39.2895479384625759 30.9851966977073019 20.0974848353438986
 39.2895479384625759 30.9851966977073019 22.9824805025850125
 39.2895479384625759 30.9851966977073019 25.8674761698261264
 39.2895479384625759 30.9851966977073019 28.7524718370672403
 39.2895479384625759 30.9851966977073019 31.6374675043083542
 39.2895479384625759 30.9851966977073019 34.5224631715494681
 39.2895479384625759 30.9851966977073019 37.4074588387905820
 39.2895479384625759 30.9851966977073019 40.2924545060316959
 39.2895479384625759 30.9851966977073019 43.1774501732728098
 40.1971737581854711 33.7785817409836469 14.3274935008616708
 40.1971737581854711 33.7785817409836469 17.2124891681027847
 40.1971737581854711 33.7785817409836469 20.0974848353438986
 40.1971737581854711 33.7785817409836469 22.9824805025850125
 40.1971737581854711 33.7785817409836469 25.8674761698261264
 40.1971737581854711 33.7785817409836469 28.7524718370672403
 40.1971737581854711 33.7785817409836469 31.6374675043083542
 40.1971737581854711 33.7785817409836469 34.5224631715494681
 40.1971737581854711 33.7785817409836469 37.4074588387905820
 40.1971737581854711 33.7785817409836469 40.2924545060316959
 40.1971737581854711 33.7785817409836469 43.1774501732728098
 43.4809948230098868 37.3440394214884606 15.7699913344822278
 43.4809948230098868 37.3440394214884606 18.6549870017233417
 43.4809948230098868 37.3440394214884606 21.5399826689644556
 43.4809948230098868 37.3440394214884606 24.4249783362055695
 43.4809948230098868 37.3440394214884606 27.3099740034466834
 43.4809948230098868 37.3440394214884606 30.1949696706877972
 43.4809948230098868 37.3440394214884606 33.0799653379289111
 43.4809948230098868 37.3440394214884606 35.9649610051700250
 43.4809948230098868 37.3440394214884606 38.8499566724111389
 43.4809948230098868 37.3440394214884606 41.7349523396522528
 41.1047995779083664 39.0704463218988352 15.7699913344822278
 41.1047995779083664 39.0704463218988352 18.6549870017233417
 41.1047995779083664 39.0704463218988352 21.5399826689644556
 41.1047995779083664 39.0704463218988352 24.4249783362055695
 41.1047995779083664 39.0704463218988352 27.3099740034466834
 41.1047995779083664 39.0704463218988352 30.1949696706877972
 41.1047995779083664 39.0704463218988352 33.0799653379289111
 41.1047995779083664 39.0704463218988352 35.9649610051700250
 41.1047995779083664 39.0704463218988352 38.8499566724111389
 41.1047995779083664 39.0704463218988352 41.7349523396522528
 38.7286043328068459 40.7968532223092168 15.7699913344822278
 38.7286043328068459 40.7968532223092168 18.6549870017233417
 38.7286043328068459 40.7968532223092168 21.5399826689644556
 38.7286043328068459 40.7968532223092168 24.4249783362055695
 38.7286043328068459 40.7968532223092168 27.3099740034466834
 38.7286043328068459 40.7968532223092168 30.1949696706877972
 38.7286043328068459 40.7968532223092168 33.0799653379289111
 38.7286043328068459 40.7968532223092168 35.9649610051700250
 38.7286043328068459 40.7968532223092168 38.8499566724111389
 38.7286043328068459 40.7968532223092168 41.7349523396522528
 36.3524090877053183 42.5232601227195914 15.7699913344822278
 36.3524090877053183 42.5232601227195914 18.6549870017233417
 36.3524090877053183 42.5232601227195914 21.5399826689644556
 36.3524090877053183 42.5232601227195914 24.4249783362055695
 36.3524090877053183 42.5232601227195914 27.3099740034466834
 36.3524090877053183 42.5232601227195914 30.1949696706877972
 36.3524090877053183 42.5232601227195914 33.0799653379289111
 36.3524090877053183 42.5232601227195914 35.9649610051700250
 36.3524090877053183 42.5232601227195914 38.8499566724111389
 36.3524090877053183 42.5232601227195914 41.7349523396522528
 33.9762138426037978 44.2496670231299731 15.7699913344822278
 33.9762138426037978 44.2496670231299731 18.6549870017233417
 33.9762138426037978 44.2496670231299731 21.5399826689644556
 33.9762138426037978 44.2496670231299731 24.4249783362055695
 33.9762138426037978 44.2496670231299731 27.3099740034466834
 33.9762138426037978 44.2496670231299731 30.1949696706877972
 33.9762138426037978 44.2496670231299731 33.0799653379289111
 33.9762138426037978 44.2496670231299731 35.9649610051700250
 33.9762138426037978 44.2496670231299731 38.8499566724111389
 33.9762138426037978 44.2496670231299731 41.7349523396522528
 31.6000185975022774 42.5232601227195914 15.7699913344822278
 31.6000185975022774 42.5232601227195914 18.6549870017233417
 31.6000185975022774 42.5232601227195914 21.5399826689644556
 31.6000185975022774 42.5232601227195914 24.4249783362055695
 31.6000185975022774 42.5232601227195914 27.3099740034466834
 31.6000185975022774 42.5232601227195914 30.1949696706877972
 31.6000185975022774 42.5232601227195914 33.0799653379289111
 31.6000185975022774 42.5232601227195914 35.9649610051700250
 31.6000185975022774 42.5232601227195914 38.8499566724111389
 31.6000185975022774 42.5232601227195914 41.7349523396522528
 29.2238233524007534 40.7968532223092168 15.7699913344822278
 29.2238233524007534 40.7968532223092168 18.6549870017233417
 29.2238233524007534 40.7968532223092168 21.5399826689644556
 29.2238233524007534 40.7968532223092168 24.4249783362055695
 29.2238233524007534 40.7968532223092168 27.3099740034466834
 29.2238233524007534 40.7968532223092168 30.1949696706877972
 29.2238233524007534 40.7968532223092168 33.0799653379289111
 29.2238233524007534 40.7968532223092168 35.9649610051700250
 29.2238233524007534 40.7968532223092168 38.8499566724111389
 29.2238233524007534 40.7968532223092168 41.7349523396522528
 26.8476281072992293 39.0704463218988423 15.7699913344822278
 26.8476281072992293 39.0704463218988423 18.6549870017233417
 26.8476281072992293 39.0704463218988423 21.5399826689644556
 26.8476281072992293 39.0704463218988423 24.4249783362055695
 26.8476281072992293 39.0704463218988423 27.3099740034466834
 26.8476281072992293 39.0704463218988423 30.1949696706877972
 26.8476281072992293 39.0704463218988423 33.0799653379289111
 26.8476281072992293 39.0704463218988423 35.9649610051700250
 26.8476281072992293 39.0704463218988423 38.8499566724111389
 26.8476281072992293 39.0704463218988423 41.7349523396522528
 24.4714328621977089 37.3440394214884606 15.7699913344822278
 24.4714328621977089 37.3440394214884606 18.6549870017233417
 24.4714328621977089 37.3440394214884606 21.5399826689644556
 24.4714328621977089 37.3440394214884606 24.4249783362055695
 24.4714328621977089 37.3440394214884606 27.3099740034466834
 24.4714328621977089 37.3440394214884606 30.1949696706877972
 24.4714328621977089 37.3440394214884606 33.0799653379289111
 24.4714328621977089 37.3440394214884606 35.9649610051700250
 24.4714328621977089 37.3440394214884606 38.8499566724111389
 24.4714328621977089 37.3440394214884606 41.7349523396522528
 25.3790586819206005 34.5506543782121156 15.7699913344822278
 25.3790586819206005 34.5506543782121156 18.6549870017233417
 25.3790586819206005 34.5506543782121156 21.5399826689644556
 25.3790586819206005 34.5506543782121156 24.4249783362055695
 25.3790586819206005 34.5506543782121156 27.3099740034466834
 25.3790586819206005 34.5506543782121156 30.1949696706877972
 25.3790586819206005 34.5506543782121156 33.0799653379289111
 25.3790586819206005 34.5506543782121156 35.9649610051700250
 25.3790586819206005 34.5506543782121156 38.8499566724111389
 25.3790586819206005 34.5506543782121156 41.7349523396522528
 26.2866845016434958 31.7572693349357671 15.7699913344822278
 26.2866845016434958 31.7572693349357671 18.6549870017233417
 26.2866845016434958 31.7572693349357671 21.5399826689644556
 26.2866845016434958 31.7572693349357671 24.4249783362055695
 26.2866845016434958 31.7572693349357671 27.3099740034466834
 26.2866845016434958 31.7572693349357671 30.1949696706877972
 26.2866845016434958 31.7572693349357671 33.0799653379289111
 26.2866845016434958 31.7572693349357671 35.9649610051700250
 26.2866845016434958 31.7572693349357671 38.8499566724111389
 26.2866845016434958 31.7572693349357671 41.7349523396522528
 27.1943103213663910 28.9638842916594186 15.7699913344822278
 27.1943103213663910 28.9638842916594186 18.6549870017233417
 27.1943103213663910 28.9638842916594186 21.5399826689644556
 27.1943103213663910 28.9638842916594186 24.4249783362055695
 27.1943103213663910 28.9638842916594186 27.3099740034466834
 27.1943103213663910 28.9638842916594186 30.1949696706877972
 27.1943103213663910 28.9638842916594186 33.0799653379289111
 27.1943103213663910 28.9638842916594186 35.9649610051700250
 27.1943103213663910 28.9638842916594186 38.8499566724111389
 27.1943103213663910 28.9638842916594186 41.7349523396522528
 28.1019361410892827 26.1704992483830736 15.7699913344822278
 28.1019361410892827 26.1704992483830736 18.6549870017233417
 28.1019361410892827 26.1704992483830736 21.5399826689644556