Au 
 1.0000000000000000
    34.2571714706091370    0.0000000000000000    0.0000000000000000
     0.0000000000000000   33.5593758310601800    0.0000000000000000
     0.0000000000000000    0.0000000000000000   31.5399826689644556
 Au 
  85
Cartesian
 17.1285857353045685 16.0639372181436535 10.0000000000000000
 17.1285857353045685 16.0639372181436535 12.8849956672411139
 17.1285857353045685 16.0639372181436535 15.7699913344822278
 17.1285857353045685 16.0639372181436535 18.6549870017233417
 17.1285857353045685 16.0639372181436535 21.5399826689644556
 19.5047809804060925 16.8360098553721151 11.4424978336205569
 19.5047809804060925 16.8360098553721151 14.3274935008616708
 19.5047809804060925 16.8360098553721151 17.2124891681027847
 19.5047809804060925 16.8360098553721151 20.0974848353438986
 17.1285857353045685 18.5624167557824933 11.4424978336205569
 17.1285857353045685 18.5624167557824933 14.3274935008616708
 17.1285857353045685 18.5624167557824933 17.2124891681027847
 17.1285857353045685 18.5624167557824933 20.0974848353438986
 14.7523904902030463 16.8360098553721151 11.4424978336205569
 14.7523904902030463 16.8360098553721151 14.3274935008616708
 14.7523904902030463 16.8360098553721151 17.2124891681027847
 14.7523904902030463 16.8360098553721151 20.0974848353438986
 15.6600163099259397 14.0426248120957702 11.4424978336205569
 15.6600163099259397 14.0426248120957702 14.3274935008616708
 15.6600163099259397 14.0426248120957702 17.2124891681027847
 15.6600163099259397 14.0426248120957702 20.0974848353438986
 18.5971551606831973 14.0426248120957702 11.4424978336205569
 18.5971551606831973 14.0426248120957702 14.3274935008616708
 18.5971551606831973 14.0426248120957702 17.2124891681027847
 18.5971551606831973 14.0426248120957702 20.0974848353438986
 21.8809762255076130 17.6080824926005803 12.8849956672411139
 21.8809762255076130 17.6080824926005803 15.7699913344822278
 21.8809762255076130 17.6080824926005803 18.6549870017233417
 19.5047809804060925 19.3344893930109585 12.8849956672411139
 19.5047809804060925 19.3344893930109585 15.7699913344822278
 19.5047809804060925 19.3344893930109585 18.6549870017233417
 17.1285857353045685 21.0608962934213366 12.8849956672411139
 17.1285857353045685 21.0608962934213366 15.7699913344822278
 17.1285857353045685 21.0608962934213366 18.6549870017233417
 14.7523904902030463 19.3344893930109585 12.8849956672411139
 14.7523904902030463 19.3344893930109585 15.7699913344822278
 14.7523904902030463 19.3344893930109585 18.6549870017233417
 12.3761952451015240 17.6080824926005803 12.8849956672411139
 12.3761952451015240 17.6080824926005803 15.7699913344822278
 12.3761952451015240 17.6080824926005803 18.6549870017233417
 13.2838210648244175 14.8146974493242336 12.8849956672411139
 13.2838210648244175 14.8146974493242336 15.7699913344822278
 13.2838210648244175 14.8146974493242336 18.6549870017233417
 14.1914468845473110 12.0213124060478869 12.8849956672411139
 14.1914468845473110 12.0213124060478869 15.7699913344822278
 14.1914468845473110 12.0213124060478869 18.6549870017233417
 17.1285857353045685 12.0213124060478851 12.8849956672411139
 17.1285857353045685 12.0213124060478851 15.7699913344822278
 17.1285857353045685 12.0213124060478851 18.6549870017233417
 20.0657245860618225 12.0213124060478851 12.8849956672411139
 20.0657245860618225 12.0213124060478851 15.7699913344822278
 20.0657245860618225 12.0213124060478851 18.6549870017233417
 20.9733504057847178 14.8146974493242318 12.8849956672411139
 20.9733504057847178 14.8146974493242318 15.7699913344822278
 20.9733504057847178 14.8146974493242318 18.6549870017233417
 24.2571714706091370 18.3801551298290420 14.3274935008616708
 24.2571714706091370 18.3801551298290420 17.2124891681027847
 21.8809762255076130 20.1065620302394201 14.3274935008616708
 21.8809762255076130 20.1065620302394201 17.2124891681027847
 19.5047809804060925 21.8329689306497983 14.3274935008616708
 19.5047809804060925 21.8329689306497983 17.2124891681027847
 17.1285857353045685 23.5593758310601800 14.3274935008616708
 17.1285857353045685 23.5593758310601800 17.2124891681027847
 14.7523904902030463 21.8329689306497983 14.3274935008616708
 14.7523904902030463 21.8329689306497983 17.2124891681027847
 12.3761952451015240 20.1065620302394237 14.3274935008616708
 12.3761952451015240 20.1065620302394237 17.2124891681027847
 10.0000000000000000 18.3801551298290420 14.3274935008616708
 10.0000000000000000 18.3801551298290420 17.2124891681027847
 10.9076258197228952 15.5867700865526970 14.3274935008616708
 10.9076258197228952 15.5867700865526970 17.2124891681027847
 11.8152516394457887 12.7933850432763485 14.3274935008616708
 11.8152516394457887 12.7933850432763485 17.2124891681027847
 12.7228774591686840 10.0000000000000018 14.3274935008616708
 12.7228774591686840 10.0000000000000018 17.2124891681027847
 15.6600163099259397 10.0000000000000018 14.3274935008616708
 15.6600163099259397 10.0000000000000018 17.2124891681027847
 18.5971551606831937 10.0000000000000018 14.3274935008616708
 18.5971551606831937 10.0000000000000018 17.2124891681027847
 21.5342940114404513 10.0000000000000000 14.3274935008616708
 21.5342940114404513 10.0000000000000000 17.2124891681027847
 22.4419198311633465 12.7933850432763485 14.3274935008616708
 22.4419198311633465 12.7933850432763485 17.2124891681027847
 23.3495456508862418 15.5867700865526935 14.3274935008616708
 23.3495456508862418 15.5867700865526935 17.2124891681027847
