Au 
 1.0000000000000000
    60.9562627723816206    0.0000000000000000    0.0000000000000000
     0.0000000000000000   58.9517205927701511    0.0000000000000000
     0.0000000000000000    0.0000000000000000   51.7349523396522528
 Au 
 1272
Cartesian
 30.4781313861908103 28.1918116544309569 10.0000000000000000
 30.4781313861908103 28.1918116544309569 12.8849956672411139
 30.4781313861908103 28.1918116544309569 15.7699913344822278
 30.4781313861908103 28.1918116544309569 18.6549870017233417
 30.4781313861908103 28.1918116544309569 21.5399826689644556
 30.4781313861908103 28.1918116544309569 24.4249783362055695
 30.4781313861908103 28.1918116544309569 27.3099740034466834
 30.4781313861908103 28.1918116544309569 30.1949696706877972
 30.4781313861908103 28.1918116544309569 33.0799653379289111
 30.4781313861908103 28.1918116544309569 35.9649610051700250
 30.4781313861908103 28.1918116544309569 38.8499566724111389
 30.4781313861908103 28.1918116544309569 41.7349523396522528
 32.8543266312923308 28.9638842916594186 11.4424978336205569
 32.8543266312923308 28.9638842916594186 14.3274935008616708
 32.8543266312923308 28.9638842916594186 17.2124891681027847
 32.8543266312923308 28.9638842916594186 20.0974848353438986
 32.8543266312923308 28.9638842916594186 22.9824805025850125
 32.8543266312923308 28.9638842916594186 25.8674761698261264
 32.8543266312923308 28.9638842916594186 28.7524718370672403
 32.8543266312923308 28.9638842916594186 31.6374675043083542
 32.8543266312923308 28.9638842916594186 34.5224631715494681
 32.8543266312923308 28.9638842916594186 37.4074588387905820
 32.8543266312923308 28.9638842916594186 40.2924545060316959
 30.4781313861908103 30.6902911920698003 11.4424978336205569
 30.4781313861908103 30.6902911920698003 14.3274935008616708
 30.4781313861908103 30.6902911920698003 17.2124891681027847
 30.4781313861908103 30.6902911920698003 20.0974848353438986
 30.4781313861908103 30.6902911920698003 22.9824805025850125
 30.4781313861908103 30.6902911920698003 25.8674761698261264
 30.4781313861908103 30.6902911920698003 28.7524718370672403
 30.4781313861908103 30.6902911920698003 31.6374675043083542
 30.4781313861908103 30.6902911920698003 34.5224631715494681
 30.4781313861908103 30.6902911920698003 37.4074588387905820
 30.4781313861908103 30.6902911920698003 40.2924545060316959
 28.1019361410892863 28.9638842916594186 11.4424978336205569
 28.1019361410892863 28.9638842916594186 14.3274935008616708
 28.1019361410892863 28.9638842916594186 17.2124891681027847
 28.1019361410892863 28.9638842916594186 20.0974848353438986
 28.1019361410892863 28.9638842916594186 22.9824805025850125
 28.1019361410892863 28.9638842916594186 25.8674761698261264
 28.1019361410892863 28.9638842916594186 28.7524718370672403
 28.1019361410892863 28.9638842916594186 31.6374675043083542
 28.1019361410892863 28.9638842916594186 34.5224631715494681
 28.1019361410892863 28.9638842916594186 37.4074588387905820
 28.1019361410892863 28.9638842916594186 40.2924545060316959
 29.0095619608121815 26.1704992483830736 11.4424978336205569
 29.0095619608121815 26.1704992483830736 14.3274935008616708
 29.0095619608121815 26.1704992483830736 17.2124891681027847
 29.0095619608121815 26.1704992483830736 20.0974848353438986
 29.0095619608121815 26.1704992483830736 22.9824805025850125
 29.0095619608121815 26.1704992483830736 25.8674761698261264
 29.0095619608121815 26.1704992483830736 28.7524718370672403
 29.0095619608121815 26.1704992483830736 31.6374675043083542
 29.0095619608121815 26.1704992483830736 34.5224631715494681
 29.0095619608121815 26.1704992483830736 37.4074588387905820
 29.0095619608121815 26.1704992483830736 40.2924545060316959
 31.9467008115694391 26.1704992483830736 11.4424978336205569
 31.9467008115694391 26.1704992483830736 14.3274935008616708
 31.9467008115694391 26.1704992483830736 17.2124891681027847
 31.9467008115694391 26.1704992483830736 20.0974848353438986
 31.9467008115694391 26.1704992483830736 22.9824805025850125
 31.9467008115694391 26.1704992483830736 25.8674761698261264
 31.9467008115694391 26.1704992483830736 28.7524718370672403
 31.9467008115694391 26.1704992483830736 31.6374675043083542
 31.9467008115694391 26.1704992483830736 34.5224631715494681
 31.9467008115694391 26.1704992483830736 37.4074588387905820
 31.9467008115694391 26.1704992483830736 40.2924545060316959
 35.2305218763938583 29.7359569288878802 12.8849956672411139
 35.2305218763938583 29.7359569288878802 15.7699913344822278
 35.2305218763938583 29.7359569288878802 18.6549870017233417
 35.2305218763938583 29.7359569288878802 21.5399826689644556
 35.2305218763938583 29.7359569288878802 24.4249783362055695
 35.2305218763938583 29.7359569288878802 27.3099740034466834
 35.2305218763938583 29.7359569288878802 30.1949696706877972
 35.2305218763938583 29.7359569288878802 33.0799653379289111
 35.2305218763938583 29.7359569288878802 35.9649610051700250
 35.2305218763938583 29.7359569288878802 38.8499566724111389
 32.8543266312923308 31.4623638292982619 12.8849956672411139
 32.8543266312923308 31.4623638292982619 15.7699913344822278
 32.8543266312923308 31.4623638292982619 18.6549870017233417
 32.8543266312923308 31.4623638292982619 21.5399826689644556
 32.8543266312923308 31.4623638292982619 24.4249783362055695
 32.8543266312923308 31.4623638292982619 27.3099740034466834
 32.8543266312923308 31.4623638292982619 30.1949696706877972
 32.8543266312923308 31.4623638292982619 33.0799653379289111
 32.8543266312923308 31.4623638292982619 35.9649610051700250
 32.8543266312923308 31.4623638292982619 38.8499566724111389
 30.4781313861908103 33.1887707297086365 12.8849956672411139
 30.4781313861908103 33.1887707297086365 15.7699913344822278
 30.4781313861908103 33.1887707297086365 18.6549870017233417
 30.4781313861908103 33.1887707297086365 21.5399826689644556
 30.4781313861908103 33.1887707297086365 24.4249783362055695
 30.4781313861908103 33.1887707297086365 27.3099740034466834
 30.4781313861908103 33.1887707297086365 30.1949696706877972
 30.4781313861908103 33.1887707297086365 33.0799653379289111
 30.4781313861908103 33.1887707297086365 35.9649610051700250
 30.4781313861908103 33.1887707297086365 38.8499566724111389
 28.1019361410892863 31.4623638292982619 12.8849956672411139
 28.1019361410892863 31.4623638292982619 15.7699913344822278
 28.1019361410892863 31.4623638292982619 18.6549870017233417
 28.1019361410892863 31.4623638292982619 21.5399826689644556
 28.1019361410892863 31.4623638292982619 24.4249783362055695
 28.1019361410892863 31.4623638292982619 27.3099740034466834
 28.1019361410892863 31.4623638292982619 30.1949696706877972
 28.1019361410892863 31.4623638292982619 33.0799653379289111
 28.1019361410892863 31.4623638292982619 35.9649610051700250
 28.1019361410892863 31.4623638292982619 38.8499566724111389
 25.7257408959877658 29.7359569288878838 12.8849956672411139
 25.7257408959877658 29.7359569288878838 15.7699913344822278
 25.7257408959877658 29.7359569288878838 18.6549870017233417
 25.7257408959877658 29.7359569288878838 21.5399826689644556
 25.7257408959877658 29.7359569288878838 24.4249783362055695
 25.7257408959877658 29.7359569288878838 27.3099740034466834
 25.7257408959877658 29.7359569288878838 30.1949696706877972
 25.7257408959877658 29.7359569288878838 33.0799653379289111
 25.7257408959877658 29.7359569288878838 35.9649610051700250
 25.7257408959877658 29.7359569288878838 38.8499566724111389
 26.6333667157106575 26.9425718856115353 12.8849956672411139
 26.6333667157106575 26.9425718856115353 15.7699913344822278
 26.6333667157106575 26.9425718856115353 18.6549870017233417
 26.6333667157106575 26.9425718856115353 21.5399826689644556
 26.6333667157106575 26.9425718856115353 24.4249783362055695
 26.6333667157106575 26.9425718856115353 27.3099740034466834
 26.6333667157106575 26.9425718856115353 30.1949696706877972
 26.6333667157106575 26.9425718856115353 33.0799653379289111
 26.6333667157106575 26.9425718856115353 35.9649610051700250
 26.6333667157106575 26.9425718856115353 38.8499566724111389
 27.5409925354335527 24.1491868423351903 12.8849956672411139
 27.5409925354335527 24.1491868423351903 15.7699913344822278
 27.5409925354335527 24.1491868423351903 18.6549870017233417
 27.5409925354335527 24.1491868423351903 21.5399826689644556
 27.5409925354335527 24.1491868423351903 24.4249783362055695
 27.5409925354335527 24.1491868423351903 27.3099740034466834
 27.5409925354335527 24.1491868423351903 30.1949696706877972
 27.5409925354335527 24.1491868423351903 33.0799653379289111
 27.5409925354335527 24.1491868423351903 35.9649610051700250
 27.5409925354335527 24.1491868423351903 38.8499566724111389
 30.4781313861908103 24.1491868423351903 12.8849956672411139
 30.4781313861908103 24.1491868423351903 15.7699913344822278
 30.4781313861908103 24.1491868423351903 18.6549870017233417
 30.4781313861908103 24.1491868423351903 21.5399826689644556
 30.4781313861908103 24.1491868423351903 24.4249783362055695
 30.4781313861908103 24.1491868423351903 27.3099740034466834
 30.4781313861908103 24.1491868423351903 30.1949696706877972
 30.4781313861908103 24.1491868423351903 33.0799653379289111
 30.4781313861908103 24.1491868423351903 35.9649610051700250
 30.4781313861908103 24.1491868423351903 38.8499566724111389
 33.4152702369480679 24.1491868423351903 12.8849956672411139
 33.4152702369480679 24.1491868423351903 15.7699913344822278
 33.4152702369480679 24.1491868423351903 18.6549870017233417
 33.4152702369480679 24.1491868423351903 21.5399826689644556
 33.4152702369480679 24.1491868423351903 24.4249783362055695
 33.4152702369480679 24.1491868423351903 27.3099740034466834
 33.4152702369480679 24.1491868423351903 30.1949696706877972
 33.4152702369480679 24.1491868423351903 33.0799653379289111
 33.4152702369480679 24.1491868423351903 35.9649610051700250
 33.4152702369480679 24.1491868423351903 38.8499566724111389
 34.3228960566709631 26.9425718856115353 12.8849956672411139
 34.3228960566709631 26.9425718856115353 15.7699913344822278
 34.3228960566709631 26.9425718856115353 18.6549870017233417
 34.3228960566709631 26.9425718856115353 21.5399826689644556
 34.3228960566709631 26.9425718856115353 24.4249783362055695
 34.3228960566709631 26.9425718856115353 27.3099740034466834
 34.3228960566709631 26.9425718856115353 30.1949696706877972
 34.3228960566709631 26.9425718856115353 33.0799653379289111
 34.3228960566709631 26.9425718856115353 35.9649610051700250
 34.3228960566709631 26.9425718856115353 38.8499566724111389
 37.6067171214953788 30.5080295661163454 14.3274935008616708
 37.6067171214953788 30.5080295661163454 17.2124891681027847
 37.6067171214953788 30.5080295661163454 20.0974848353438986
 37.6067171214953788 30.5080295661163454 22.9824805025850125
 37.6067171214953788 30.5080295661163454 25.8674761698261264
 37.6067171214953788 30.5080295661163454 28.7524718370672403
 37.6067171214953788 30.5080295661163454 31.6374675043083542
 37.6067171214953788 30.5080295661163454 34.5224631715494681
 37.6067171214953788 30.5080295661163454 37.4074588387905820
 35.2305218763938583 32.2344364665267236 14.3274935008616708
 35.2305218763938583 32.2344364665267236 17.2124891681027847
 35.2305218763938583 32.2344364665267236 20.0974848353438986
 35.2305218763938583 32.2344364665267236 22.9824805025850125
 35.2305218763938583 32.2344364665267236 25.8674761698261264
 35.2305218763938583 32.2344364665267236 28.7524718370672403
 35.2305218763938583 32.2344364665267236 31.6374675043083542
 35.2305218763938583 32.2344364665267236 34.5224631715494681
 35.2305218763938583 32.2344364665267236 37.4074588387905820
 32.8543266312923308 33.9608433669371053 14.3274935008616708
 32.8543266312923308 33.9608433669371053 17.2124891681027847
 32.8543266312923308 33.9608433669371053 20.0974848353438986
 32.8543266312923308 33.9608433669371053 22.9824805025850125
 32.8543266312923308 33.9608433669371053 25.8674761698261264
 32.8543266312923308 33.9608433669371053 28.7524718370672403
 32.8543266312923308 33.9608433669371053 31.6374675043083542
 32.8543266312923308 33.9608433669371053 34.5224631715494681
 32.8543266312923308 33.9608433669371053 37.4074588387905820
 30.4781313861908103 35.6872502673474798 14.3274935008616708
 30.4781313861908103 35.6872502673474798 17.2124891681027847
 30.4781313861908103 35.6872502673474798 20.0974848353438986
 30.4781313861908103 35.6872502673474798 22.9824805025850125
 30.4781313861908103 35.6872502673474798 25.8674761698261264
 30.4781313861908103 35.6872502673474798 28.7524718370672403
 30.4781313861908103 35.6872502673474798 31.6374675043083542
 30.4781313861908103 35.6872502673474798 34.5224631715494681
 30.4781313861908103 35.6872502673474798 37.4074588387905820
 28.1019361410892898 33.9608433669371053 14.3274935008616708
 28.1019361410892898 33.9608433669371053 17.2124891681027847
 28.1019361410892898 33.9608433669371053 20.0974848353438986
 28.1019361410892898 33.9608433669371053 22.9824805025850125
 28.1019361410892898 33.9608433669371053 25.8674761698261264
 28.1019361410892898 33.9608433669371053 28.7524718370672403
 28.1019361410892898 33.9608433669371053 31.6374675043083542
 28.1019361410892898 33.9608433669371053 34.5224631715494681
 28.1019361410892898 33.9608433669371053 37.4074588387905820
 25.7257408959877658 32.2344364665267236 14.3274935008616708
 25.7257408959877658 32.2344364665267236 17.2124891681027847
 25.7257408959877658 32.2344364665267236 20.0974848353438986
 25.7257408959877658 32.2344364665267236 22.9824805025850125
 25.7257408959877658 32.2344364665267236 25.8674761698261264
 25.7257408959877658 32.2344364665267236 28.7524718370672403
 25.7257408959877658 32.2344364665267236 31.6374675043083542
 25.7257408959877658 32.2344364665267236 34.5224631715494681
 25.7257408959877658 32.2344364665267236 37.4074588387905820
 23.3495456508862418 30.5080295661163454 14.3274935008616708
 23.3495456508862418 30.5080295661163454 17.2124891681027847
 23.3495456508862418 30.5080295661163454 20.0974848353438986
 23.3495456508862418 30.5080295661163454 22.9824805025850125
 23.3495456508862418 30.5080295661163454 25.8674761698261264
 23.3495456508862418 30.5080295661163454 28.7524718370672403
 23.3495456508862418 30.5080295661163454 31.6374675043083542
 23.3495456508862418 30.5080295661163454 34.5224631715494681
 23.3495456508862418 30.5080295661163454 37.4074588387905820
 24.2571714706091370 27.7146445228400005 14.3274935008616708
 24.2571714706091370 27.7146445228400005 17.2124891681027847
 24.2571714706091370 27.7146445228400005 20.0974848353438986
 24.2571714706091370 27.7146445228400005 22.9824805025850125
 24.2571714706091370 27.7146445228400005 25.8674761698261264
 24.2571714706091370 27.7146445228400005 28.7524718370672403
 24.2571714706091370 27.7146445228400005 31.6374675043083542
 24.2571714706091370 27.7146445228400005 34.5224631715494681
 24.2571714706091370 27.7146445228400005 37.4074588387905820
 25.1647972903320323 24.9212594795636520 14.3274935008616708
 25.1647972903320323 24.9212594795636520 17.2124891681027847
 25.1647972903320323 24.9212594795636520 20.0974848353438986
 25.1647972903320323 24.9212594795636520 22.9824805025850125
 25.1647972903320323 24.9212594795636520 25.8674761698261264
 25.1647972903320323 24.9212594795636520 28.7524718370672403
 25.1647972903320323 24.9212594795636520 31.6374675043083542
 25.1647972903320323 24.9212594795636520 34.5224631715494681
 25.1647972903320323 24.9212594795636520 37.4074588387905820
 26.0724231100549275 22.1278744362873070 14.3274935008616708
 26.0724231100549275 22.1278744362873070 17.2124891681027847
 26.0724231100549275 22.1278744362873070 20.0974848353438986
 26.0724231100549275 22.1278744362873070 22.9824805025850125
 26.0724231100549275 22.1278744362873070 25.8674761698261264
 26.0724231100549275 22.1278744362873070 28.7524718370672403
 26.0724231100549275 22.1278744362873070 31.6374675043083542
 26.0724231100549275 22.1278744362873070 34.5224631715494681
 26.0724231100549275 22.1278744362873070 37.4074588387905820
 29.0095619608121815 22.1278744362873070 14.3274935008616708
 29.0095619608121815 22.1278744362873070 17.2124891681027847
 29.0095619608121815 22.1278744362873070 20.0974848353438986
 29.0095619608121815 22.1278744362873070 22.9824805025850125
 29.0095619608121815 22.1278744362873070 25.8674761698261264
 29.0095619608121815 22.1278744362873070 28.7524718370672403
 29.0095619608121815 22.1278744362873070 31.6374675043083542
 29.0095619608121815 22.1278744362873070 34.5224631715494681
 29.0095619608121815 22.1278744362873070 37.4074588387905820
 31.9467008115694355 22.1278744362873070 14.3274935008616708
 31.9467008115694355 22.1278744362873070 17.2124891681027847
 31.9467008115694355 22.1278744362873070 20.0974848353438986
 31.9467008115694355 22.1278744362873070 22.9824805025850125
 31.9467008115694355 22.1278744362873070 25.8674761698261264
 31.9467008115694355 22.1278744362873070 28.7524718370672403
 31.9467008115694355 22.1278744362873070 31.6374675043083542
 31.9467008115694355 22.1278744362873070 34.5224631715494681
 31.9467008115694355 22.1278744362873070 37.4074588387905820
 34.8838396623266931 22.1278744362873034 14.3274935008616708
 34.8838396623266931 22.1278744362873034 17.2124891681027847
 34.8838396623266931 22.1278744362873034 20.0974848353438986
 34.8838396623266931 22.1278744362873034 22.9824805025850125
 34.8838396623266931 22.1278744362873034 25.8674761698261264
 34.8838396623266931 22.1278744362873034 28.7524718370672403
 34.8838396623266931 22.1278744362873034 31.6374675043083542
 34.8838396623266931 22.1278744362873034 34.5224631715494681
 34.8838396623266931 22.1278744362873034 37.4074588387905820
 35.7914654820495883 24.9212594795636520 14.3274935008616708
 35.7914654820495883 24.9212594795636520 17.2124891681027847
 35.7914654820495883 24.9212594795636520 20.0974848353438986
 35.7914654820495883 24.9212594795636520 22.9824805025850125
 35.7914654820495883 24.9212594795636520 25.8674761698261264
 35.7914654820495883 24.9212594795636520 28.7524718370672403
 35.7914654820495883 24.9212594795636520 31.6374675043083542
 35.7914654820495883 24.9212594795636520 34.5224631715494681
 35.7914654820495883 24.9212594795636520 37.4074588387905820
 36.6990913017724836 27.7146445228399969 14.3274935008616708
 36.6990913017724836 27.7146445228399969 17.2124891681027847
 36.6990913017724836 27.7146445228399969 20.0974848353438986
 36.6990913017724836 27.7146445228399969 22.9824805025850125
 36.6990913017724836 27.7146445228399969 25.8674761698261264
 36.6990913017724836 27.7146445228399969 28.7524718370672403
 36.6990913017724836 27.7146445228399969 31.6374675043083542
 36.6990913017724836 27.7146445228399969 34.5224631715494681
 36.6990913017724836 27.7146445228399969 37.4074588387905820
 39.9829123665968993 31.2801022033448071 15.7699913344822278
 39.9829123665968993 31.2801022033448071 18.6549870017233417
 39.9829123665968993 31.2801022033448071 21.5399826689644556
 39.9829123665968993 31.2801022033448071 24.4249783362055695
 39.9829123665968993 31.2801022033448071 27.3099740034466834
 39.9829123665968993 31.2801022033448071 30.1949696706877972
 39.9829123665968993 31.2801022033448071 33.0799653379289111
 39.9829123665968993 31.2801022033448071 35.9649610051700250
 37.6067171214953788 33.0065091037551852 15.7699913344822278
 37.6067171214953788 33.0065091037551852 18.6549870017233417
 37.6067171214953788 33.0065091037551852 21.5399826689644556
 37.6067171214953788 33.0065091037551852 24.4249783362055695
 37.6067171214953788 33.0065091037551852 27.3099740034466834
 37.6067171214953788 33.0065091037551852 30.1949696706877972
 37.6067171214953788 33.0065091037551852 33.0799653379289111
 37.6067171214953788 33.0065091037551852 35.9649610051700250
 35.2305218763938583 34.7329160041655669 15.7699913344822278
 35.2305218763938583 34.7329160041655669 18.6549870017233417
 35.2305218763938583 34.7329160041655669 21.5399826689644556
 35.2305218763938583 34.7329160041655669 24.4249783362055695
 35.2305218763938583 34.7329160041655669 27.3099740034466834
 35.2305218763938583 34.7329160041655669 30.1949696706877972
 35.2305218763938583 34.7329160041655669 33.0799653379289111
 35.2305218763938583 34.7329160041655669 35.9649610051700250
 32.8543266312923308 36.4593229045759415 15.7699913344822278
 32.8543266312923308 36.4593229045759415 18.6549870017233417
 32.8543266312923308 36.4593229045759415 21.5399826689644556
 32.8543266312923308 36.4593229045759415 24.4249783362055695
 32.8543266312923308 36.4593229045759415 27.3099740034466834
 32.8543266312923308 36.4593229045759415 30.1949696706877972
 32.8543266312923308 36.4593229045759415 33.0799653379289111
 32.8543266312923308 36.4593229045759415 35.9649610051700250
 30.4781313861908103 38.1857298049863232 15.7699913344822278
 30.4781313861908103 38.1857298049863232 18.6549870017233417
 30.4781313861908103 38.1857298049863232 21.5399826689644556
 30.4781313861908103 38.1857298049863232 24.4249783362055695
 30.4781313861908103 38.1857298049863232 27.3099740034466834
 30.4781313861908103 38.1857298049863232 30.1949696706877972
 30.4781313861908103 38.1857298049863232 33.0799653379289111
 30.4781313861908103 38.1857298049863232 35.9649610051700250
 28.1019361410892898 36.4593229045759415 15.7699913344822278
 28.1019361410892898 36.4593229045759415 18.6549870017233417
 28.1019361410892898 36.4593229045759415 21.5399826689644556
 28.1019361410892898 36.4593229045759415 24.4249783362055695
 28.1019361410892898 36.4593229045759415 27.3099740034466834
 28.1019361410892898 36.4593229045759415 30.1949696706877972
 28.1019361410892898 36.4593229045759415 33.0799653379289111
 28.1019361410892898 36.4593229045759415 35.9649610051700250
 25.7257408959877658 34.7329160041655669 15.7699913344822278
 25.7257408959877658 34.7329160041655669 18.6549870017233417
 25.7257408959877658 34.7329160041655669 21.5399826689644556
 25.7257408959877658 34.7329160041655669 24.4249783362055695
 25.7257408959877658 34.7329160041655669 27.3099740034466834
 25.7257408959877658 34.7329160041655669 30.1949696706877972
 25.7257408959877658 34.7329160041655669 33.0799653379289111
 25.7257408959877658 34.7329160041655669 35.9649610051700250
 23.3495456508862418 33.0065091037551923 15.7699913344822278
 23.3495456508862418 33.0065091037551923 18.6549870017233417
 23.3495456508862418 33.0065091037551923 21.5399826689644556
 23.3495456508862418 33.0065091037551923 24.4249783362055695
 23.3495456508862418 33.0065091037551923 27.3099740034466834
 23.3495456508862418 33.0065091037551923 30.1949696706877972
 23.3495456508862418 33.0065091037551923 33.0799653379289111
 23.3495456508862418 33.0065091037551923 35.9649610051700250
 20.9733504057847213 31.2801022033448106 15.7699913344822278
 20.9733504057847213 31.2801022033448106 18.6549870017233417
 20.9733504057847213 31.2801022033448106 21.5399826689644556
 20.9733504057847213 31.2801022033448106 24.4249783362055695
 20.9733504057847213 31.2801022033448106 27.3099740034466834
 20.9733504057847213 31.2801022033448106 30.1949696706877972
 20.9733504057847213 31.2801022033448106 33.0799653379289111
 20.9733504057847213 31.2801022033448106 35.9649610051700250
 21.8809762255076130 28.4867171600684621 15.7699913344822278
 21.8809762255076130 28.4867171600684621 18.6549870017233417
 21.8809762255076130 28.4867171600684621 21.5399826689644556
 21.8809762255076130 28.4867171600684621 24.4249783362055695
 21.8809762255076130 28.4867171600684621 27.3099740034466834
 21.8809762255076130 28.4867171600684621 30.1949696706877972
 21.8809762255076130 28.4867171600684621 33.0799653379289111
 21.8809762255076130 28.4867171600684621 35.9649610051700250
 22.7886020452305083 25.6933321167921171 15.7699913344822278
 22.7886020452305083 25.6933321167921171 18.6549870017233417
 22.7886020452305083 25.6933321167921171 21.5399826689644556
 22.7886020452305083 25.6933321167921171 24.4249783362055695
 22.7886020452305083 25.6933321167921171 27.3099740034466834
 22.7886020452305083 25.6933321167921171 30.1949696706877972
 22.7886020452305083 25.6933321167921171 33.0799653379289111
 22.7886020452305083 25.6933321167921171 35.9649610051700250
 23.6962278649534035 22.8999470735157686 15.7699913344822278
 23.6962278649534035 22.8999470735157686 18.6549870017233417
 23.6962278649534035 22.8999470735157686 21.5399826689644556
 23.6962278649534035 22.8999470735157686 24.4249783362055695
 23.6962278649534035 22.8999470735157686 27.3099740034466834
 23.6962278649534035 22.8999470735157686 30.1949696706877972
 23.6962278649534035 22.8999470735157686 33.0799653379289111
 23.6962278649534035 22.8999470735157686 35.9649610051700250
 24.6038536846762952 20.1065620302394237 15.7699913344822278
 24.6038536846762952 20.1065620302394237 18.6549870017233417
 24.6038536846762952 20.1065620302394237 21.5399826689644556
 24.6038536846762952 20.1065620302394237 24.4249783362055695
 24.6038536846762952 20.1065620302394237 27.3099740034466834
 24.6038536846762952 20.1065620302394237 30.1949696706877972
 24.6038536846762952 20.1065620302394237 33.0799653379289111
 24.6038536846762952 20.1065620302394237 35.9649610051700250
 27.5409925354335527 20.1065620302394201 15.7699913344822278
 27.5409925354335527 20.1065620302394201 18.6549870017233417
 27.5409925354335527 20.1065620302394201 21.5399826689644556
 27.5409925354335527 20.1065620302394201 24.4249783362055695
 27.5409925354335527 20.1065620302394201 27.3099740034466834
 27.5409925354335527 20.1065620302394201 30.1949696706877972
 27.5409925354335527 20.1065620302394201 33.0799653379289111
 27.5409925354335527 20.1065620302394201 35.9649610051700250
 30.4781313861908103 20.1065620302394201 15.7699913344822278
 30.4781313861908103 20.1065620302394201 18.6549870017233417
 30.4781313861908103 20.1065620302394201 21.5399826689644556
 30.4781313861908103 20.1065620302394201 24.4249783362055695
 30.4781313861908103 20.1065620302394201 27.3099740034466834
 30.4781313861908103 20.1065620302394201 30.1949696706877972
 30.4781313861908103 20.1065620302394201 33.0799653379289111
 30.4781313861908103 20.1065620302394201 35.9649610051700250
 33.4152702369480679 20.1065620302394201 15.7699913344822278
 33.4152702369480679 20.1065620302394201 18.6549870017233417
 33.4152702369480679 20.1065620302394201 21.5399826689644556
 33.4152702369480679 20.1065620302394201 24.4249783362055695
 33.4152702369480679 20.1065620302394201 27.3099740034466834
 33.4152702369480679 20.1065620302394201 30.1949696706877972
 33.4152702369480679 20.1065620302394201 33.0799653379289111
 33.4152702369480679 20.1065620302394201 35.9649610051700250
 36.3524090877053183 20.1065620302394201 15.7699913344822278
 36.3524090877053183 20.1065620302394201 18.6549870017233417
 36.3524090877053183 20.1065620302394201 21.5399826689644556
 36.3524090877053183 20.1065620302394201 24.4249783362055695
 36.3524090877053183 20.1065620302394201 27.3099740034466834
 36.3524090877053183 20.1065620302394201 30.1949696706877972
 36.3524090877053183 20.1065620302394201 33.0799653379289111
 36.3524090877053183 20.1065620302394201 35.9649610051700250
 37.2600349074282136 22.8999470735157686 15.7699913344822278
 37.2600349074282136 22.8999470735157686 18.6549870017233417
 37.2600349074282136 22.8999470735157686 21.5399826689644556
 37.2600349074282136 22.8999470735157686 24.4249783362055695
 37.2600349074282136 22.8999470735157686 27.3099740034466834
 37.2600349074282136 22.8999470735157686 30.1949696706877972
 37.2600349074282136 22.8999470735157686 33.0799653379289111
 37.2600349074282136 22.8999470735157686 35.9649610051700250
 38.1676607271511088 25.6933321167921136 15.7699913344822278
 38.1676607271511088 25.6933321167921136 18.6549870017233417
 38.1676607271511088 25.6933321167921136 21.5399826689644556
 38.1676607271511088 25.6933321167921136 24.4249783362055695
 38.1676607271511088 25.6933321167921136 27.3099740034466834
 38.1676607271511088 25.6933321167921136 30.1949696706877972
 38.1676607271511088 25.6933321167921136 33.0799653379289111
 38.1676607271511088 25.6933321167921136 35.9649610051700250
 39.0752865468740040 28.4867171600684586 15.7699913344822278
 39.0752865468740040 28.4867171600684586 18.6549870017233417
 39.0752865468740040 28.4867171600684586 21.5399826689644556
 39.0752865468740040 28.4867171600684586 24.4249783362055695
 39.0752865468740040 28.4867171600684586 27.3099740034466834
 39.0752865468740040 28.4867171600684586 30.1949696706877972
 39.0752865468740040 28.4867171600684586 33.0799653379289111
 39.0752865468740040 28.4867171600684586 35.9649610051700250
 42.3591076116984198 32.0521748405732723 17.2124891681027847
 42.3591076116984198 32.0521748405732723 20.0974848353438986
 42.3591076116984198 32.0521748405732723 22.9824805025850125
 42.3591076116984198 32.0521748405732723 25.8674761698261264
 42.3591076116984198 32.0521748405732723 28.7524718370672403
 42.3591076116984198 32.0521748405732723 31.6374675043083542
 42.3591076116984198 32.0521748405732723 34.5224631715494681
 39.9829123665968993 33.7785817409836469 17.2124891681027847
 39.9829123665968993 33.7785817409836469 20.0974848353438986
 39.9829123665968993 33.7785817409836469 22.9824805025850125
 39.9829123665968993 33.7785817409836469 25.8674761698261264
 39.9829123665968993 33.7785817409836469 28.7524718370672403
 39.9829123665968993 33.7785817409836469 31.6374675043083542
 39.9829123665968993 33.7785817409836469 34.5224631715494681
 37.6067171214953788 35.5049886413940285 17.2124891681027847
 37.6067171214953788 35.5049886413940285 20.0974848353438986
 37.6067171214953788 35.5049886413940285 22.9824805025850125
 37.6067171214953788 35.5049886413940285 25.8674761698261264
 37.6067171214953788 35.5049886413940285 28.7524718370672403
 37.6067171214953788 35.5049886413940285 31.6374675043083542
 37.6067171214953788 35.5049886413940285 34.5224631715494681
 35.2305218763938583 37.2313955418044031 17.2124891681027847
 35.2305218763938583 37.2313955418044031 20.0974848353438986
 35.2305218763938583 37.2313955418044031 22.9824805025850125
 35.2305218763938583 37.2313955418044031 25.8674761698261264