Au 
 1.0000000000000000
    44.4799999999999969    0.0000000000000000    0.0000000000000000
     0.0000000000000000   44.4799999999999969    0.0000000000000000
     0.0000000000000000    0.0000000000000000   44.4799999999999969
 Au 
 826
Cartesian
  9.9999999999999964 12.0399999999999956 22.2399999999999949
  9.9999999999999964 14.0799999999999947 20.1999999999999957
  9.9999999999999964 14.0799999999999947 24.2799999999999940
  9.9999999999999964 16.1199999999999974 18.1599999999999966
  9.9999999999999964 18.1599999999999966 16.1199999999999974
  9.9999999999999964 16.1199999999999974 22.2399999999999949
  9.9999999999999964 18.1599999999999966 20.1999999999999957
  9.9999999999999964 16.1199999999999974 26.3199999999999932
  9.9999999999999964 18.1599999999999966 24.2799999999999940
  9.9999999999999964 18.1599999999999966 28.3599999999999923
  9.9999999999999964 20.1999999999999957 14.0799999999999947
  9.9999999999999964 22.2399999999999949 12.0399999999999956
  9.9999999999999964 20.1999999999999957 18.1599999999999966
  9.9999999999999964 22.2399999999999949 16.1199999999999974
  9.9999999999999964 20.1999999999999957 22.2399999999999949
  9.9999999999999964 22.2399999999999949 20.1999999999999957
  9.9999999999999964 20.1999999999999957 26.3199999999999932
  9.9999999999999964 22.2399999999999949 24.2799999999999940
  9.9999999999999964 20.1999999999999957 30.3999999999999915
  9.9999999999999964 22.2399999999999949 28.3599999999999923
  9.9999999999999964 22.2399999999999949 32.4399999999999977
  9.9999999999999964 24.2799999999999940 14.0799999999999947
  9.9999999999999964 24.2799999999999940 18.1599999999999966
  9.9999999999999964 26.3199999999999932 16.1199999999999974
  9.9999999999999964 24.2799999999999940 22.2399999999999949
  9.9999999999999964 26.3199999999999932 20.1999999999999957
  9.9999999999999964 24.2799999999999940 26.3199999999999932
  9.9999999999999964 26.3199999999999932 24.2799999999999940
  9.9999999999999964 24.2799999999999940 30.3999999999999915
  9.9999999999999964 26.3199999999999932 28.3599999999999923
  9.9999999999999964 28.3599999999999923 18.1599999999999966
  9.9999999999999964 28.3599999999999923 22.2399999999999949
  9.9999999999999964 30.3999999999999915 20.1999999999999957
  9.9999999999999964 28.3599999999999923 26.3199999999999932
  9.9999999999999964 30.3999999999999915 24.2799999999999940
  9.9999999999999964 32.4399999999999977 22.2399999999999949
 12.0399999999999956  9.9999999999999964 22.2399999999999949
 14.0799999999999947  9.9999999999999964 20.1999999999999957
 14.0799999999999947  9.9999999999999964 24.2799999999999940
 12.0399999999999956 14.0799999999999947 18.1599999999999966
 14.0799999999999947 12.0399999999999956 18.1599999999999966
 14.0799999999999947 14.0799999999999947 16.1199999999999974
 12.0399999999999956 12.0399999999999956 20.1999999999999957
 12.0399999999999956 14.0799999999999947 22.2399999999999949
 14.0799999999999947 12.0399999999999956 22.2399999999999949
 14.0799999999999947 14.0799999999999947 20.1999999999999957
 12.0399999999999956 12.0399999999999956 24.2799999999999940
 12.0399999999999956 14.0799999999999947 26.3199999999999932
 14.0799999999999947 12.0399999999999956 26.3199999999999932
 14.0799999999999947 14.0799999999999947 24.2799999999999940
 14.0799999999999947 14.0799999999999947 28.3599999999999923
 12.0399999999999956 18.1599999999999966 14.0799999999999947
 14.0799999999999947 16.1199999999999974 14.0799999999999947
 14.0799999999999947 18.1599999999999966 12.0399999999999956
 12.0399999999999956 16.1199999999999974 16.1199999999999974
 12.0399999999999956 18.1599999999999966 18.1599999999999966
 14.0799999999999947 16.1199999999999974 18.1599999999999966
 14.0799999999999947 18.1599999999999966 16.1199999999999974
 12.0399999999999956 16.1199999999999974 20.1999999999999957
 12.0399999999999956 18.1599999999999966 22.2399999999999949
 14.0799999999999947 16.1199999999999974 22.2399999999999949
 14.0799999999999947 18.1599999999999966 20.1999999999999957
 12.0399999999999956 16.1199999999999974 24.2799999999999940
 12.0399999999999956 18.1599999999999966 26.3199999999999932
 14.0799999999999947 16.1199999999999974 26.3199999999999932
 14.0799999999999947 18.1599999999999966 24.2799999999999940
 12.0399999999999956 16.1199999999999974 28.3599999999999923
 12.0399999999999956 18.1599999999999966 30.3999999999999915
 14.0799999999999947 16.1199999999999974 30.3999999999999915
 14.0799999999999947 18.1599999999999966 28.3599999999999923
 14.0799999999999947 18.1599999999999966 32.4399999999999977
 12.0399999999999956 22.2399999999999949  9.9999999999999964
 14.0799999999999947 20.1999999999999957  9.9999999999999964
 12.0399999999999956 20.1999999999999957 12.0399999999999956
 12.0399999999999956 22.2399999999999949 14.0799999999999947
 14.0799999999999947 20.1999999999999957 14.0799999999999947
 14.0799999999999947 22.2399999999999949 12.0399999999999956
 12.0399999999999956 20.1999999999999957 16.1199999999999974
 12.0399999999999956 22.2399999999999949 18.1599999999999966
 14.0799999999999947 20.1999999999999957 18.1599999999999966
 14.0799999999999947 22.2399999999999949 16.1199999999999974
 12.0399999999999956 20.1999999999999957 20.1999999999999957
 12.0399999999999956 22.2399999999999949 22.2399999999999949
 14.0799999999999947 20.1999999999999957 22.2399999999999949
 14.0799999999999947 22.2399999999999949 20.1999999999999957
 12.0399999999999956 20.1999999999999957 24.2799999999999940
 12.0399999999999956 22.2399999999999949 26.3199999999999932
 14.0799999999999947 20.1999999999999957 26.3199999999999932
 14.0799999999999947 22.2399999999999949 24.2799999999999940
 12.0399999999999956 20.1999999999999957 28.3599999999999923
 12.0399999999999956 22.2399999999999949 30.3999999999999915
 14.0799999999999947 20.1999999999999957 30.3999999999999915
 14.0799999999999947 22.2399999999999949 28.3599999999999923
 12.0399999999999956 20.1999999999999957 32.4399999999999977
 12.0399999999999956 22.2399999999999949 34.4799999999999969
 14.0799999999999947 20.1999999999999957 34.4799999999999969
 14.0799999999999947 22.2399999999999949 32.4399999999999977
 14.0799999999999947 24.2799999999999940  9.9999999999999964
 12.0399999999999956 24.2799999999999940 12.0399999999999956
 12.0399999999999956 26.3199999999999932 14.0799999999999947
 14.0799999999999947 24.2799999999999940 14.0799999999999947
 14.0799999999999947 26.3199999999999932 12.0399999999999956
 12.0399999999999956 24.2799999999999940 16.1199999999999974
 12.0399999999999956 26.3199999999999932 18.1599999999999966
 14.0799999999999947 24.2799999999999940 18.1599999999999966
 14.0799999999999947 26.3199999999999932 16.1199999999999974
 12.0399999999999956 24.2799999999999940 20.1999999999999957
 12.0399999999999956 26.3199999999999932 22.2399999999999949
 14.0799999999999947 24.2799999999999940 22.2399999999999949
 14.0799999999999947 26.3199999999999932 20.1999999999999957
 12.0399999999999956 24.2799999999999940 24.2799999999999940
 12.0399999999999956 26.3199999999999932 26.3199999999999932
 14.0799999999999947 24.2799999999999940 26.3199999999999932
 14.0799999999999947 26.3199999999999932 24.2799999999999940
 12.0399999999999956 24.2799999999999940 28.3599999999999923
 12.0399999999999956 26.3199999999999932 30.3999999999999915
 14.0799999999999947 24.2799999999999940 30.3999999999999915
 14.0799999999999947 26.3199999999999932 28.3599999999999923
 12.0399999999999956 24.2799999999999940 32.4399999999999977
 14.0799999999999947 24.2799999999999940 34.4799999999999969
 14.0799999999999947 26.3199999999999932 32.4399999999999977
 14.0799999999999947 28.3599999999999923 14.0799999999999947
 12.0399999999999956 28.3599999999999923 16.1199999999999974
 12.0399999999999956 30.3999999999999915 18.1599999999999966
 14.0799999999999947 28.3599999999999923 18.1599999999999966
 14.0799999999999947 30.3999999999999915 16.1199999999999974
 12.0399999999999956 28.3599999999999923 20.1999999999999957
 12.0399999999999956 30.3999999999999915 22.2399999999999949
 14.0799999999999947 28.3599999999999923 22.2399999999999949
 14.0799999999999947 30.3999999999999915 20.1999999999999957
 12.0399999999999956 28.3599999999999923 24.2799999999999940
 12.0399999999999956 30.3999999999999915 26.3199999999999932
 14.0799999999999947 28.3599999999999923 26.3199999999999932
 14.0799999999999947 30.3999999999999915 24.2799999999999940
 12.0399999999999956 28.3599999999999923 28.3599999999999923
 14.0799999999999947 28.3599999999999923 30.3999999999999915
 14.0799999999999947 30.3999999999999915 28.3599999999999923
 14.0799999999999947 32.4399999999999977 18.1599999999999966
 12.0399999999999956 32.4399999999999977 20.1999999999999957
 12.0399999999999956 34.4799999999999969 22.2399999999999949
 14.0799999999999947 32.4399999999999977 22.2399999999999949
 14.0799999999999947 34.4799999999999969 20.1999999999999957
 12.0399999999999956 32.4399999999999977 24.2799999999999940
 14.0799999999999947 32.4399999999999977 26.3199999999999932
 14.0799999999999947 34.4799999999999969 24.2799999999999940
 16.1199999999999974  9.9999999999999964 18.1599999999999966
 18.1599999999999966  9.9999999999999964 16.1199999999999974
 16.1199999999999974  9.9999999999999964 22.2399999999999949
 18.1599999999999966  9.9999999999999964 20.1999999999999957
 16.1199999999999974  9.9999999999999964 26.3199999999999932
 18.1599999999999966  9.9999999999999964 24.2799999999999940
 18.1599999999999966  9.9999999999999964 28.3599999999999923
 16.1199999999999974 14.0799999999999947 14.0799999999999947
 18.1599999999999966 12.0399999999999956 14.0799999999999947
 18.1599999999999966 14.0799999999999947 12.0399999999999956
 16.1199999999999974 12.0399999999999956 16.1199999999999974
 16.1199999999999974 14.0799999999999947 18.1599999999999966
 18.1599999999999966 12.0399999999999956 18.1599999999999966
 18.1599999999999966 14.0799999999999947 16.1199999999999974
 16.1199999999999974 12.0399999999999956 20.1999999999999957
 16.1199999999999974 14.0799999999999947 22.2399999999999949
 18.1599999999999966 12.0399999999999956 22.2399999999999949
 18.1599999999999966 14.0799999999999947 20.1999999999999957
 16.1199999999999974 12.0399999999999956 24.2799999999999940
 16.1199999999999974 14.0799999999999947 26.3199999999999932
 18.1599999999999966 12.0399999999999956 26.3199999999999932
 18.1599999999999966 14.0799999999999947 24.2799999999999940
 16.1199999999999974 12.0399999999999956 28.3599999999999923
 16.1199999999999974 14.0799999999999947 30.3999999999999915
 18.1599999999999966 12.0399999999999956 30.3999999999999915
 18.1599999999999966 14.0799999999999947 28.3599999999999923
 18.1599999999999966 14.0799999999999947 32.4399999999999977
 16.1199999999999974 18.1599999999999966  9.9999999999999964
 18.1599999999999966 16.1199999999999974  9.9999999999999964
 16.1199999999999974 16.1199999999999974 12.0399999999999956
 16.1199999999999974 18.1599999999999966 14.0799999999999947
 18.1599999999999966 16.1199999999999974 14.0799999999999947
 18.1599999999999966 18.1599999999999966 12.0399999999999956
 16.1199999999999974 16.1199999999999974 16.1199999999999974
 16.1199999999999974 18.1599999999999966 18.1599999999999966
 18.1599999999999966 16.1199999999999974 18.1599999999999966
 18.1599999999999966 18.1599999999999966 16.1199999999999974
 16.1199999999999974 16.1199999999999974 20.1999999999999957
 16.1199999999999974 18.1599999999999966 22.2399999999999949
 18.1599999999999966 16.1199999999999974 22.2399999999999949
 18.1599999999999966 18.1599999999999966 20.1999999999999957
 16.1199999999999974 16.1199999999999974 24.2799999999999940
 16.1199999999999974 18.1599999999999966 26.3199999999999932
 18.1599999999999966 16.1199999999999974 26.3199999999999932
 18.1599999999999966 18.1599999999999966 24.2799999999999940
 16.1199999999999974 16.1199999999999974 28.3599999999999923
 16.1199999999999974 18.1599999999999966 30.3999999999999915
 18.1599999999999966 16.1199999999999974 30.3999999999999915
 18.1599999999999966 18.1599999999999966 28.3599999999999923
 16.1199999999999974 16.1199999999999974 32.4399999999999977
 16.1199999999999974 18.1599999999999966 34.4799999999999969
 18.1599999999999966 16.1199999999999974 34.4799999999999969
 18.1599999999999966 18.1599999999999966 32.4399999999999977
 16.1199999999999974 22.2399999999999949  9.9999999999999964
 18.1599999999999966 20.1999999999999957  9.9999999999999964
 16.1199999999999974 20.1999999999999957 12.0399999999999956
 16.1199999999999974 22.2399999999999949 14.0799999999999947
 18.1599999999999966 20.1999999999999957 14.0799999999999947
 18.1599999999999966 22.2399999999999949 12.0399999999999956
 16.1199999999999974 20.1999999999999957 16.1199999999999974
 16.1199999999999974 22.2399999999999949 18.1599999999999966
 18.1599999999999966 20.1999999999999957 18.1599999999999966
 18.1599999999999966 22.2399999999999949 16.1199999999999974
 16.1199999999999974 20.1999999999999957 20.1999999999999957
 16.1199999999999974 22.2399999999999949 22.2399999999999949
 18.1599999999999966 20.1999999999999957 22.2399999999999949
 18.1599999999999966 22.2399999999999949 20.1999999999999957
 16.1199999999999974 20.1999999999999957 24.2799999999999940
 16.1199999999999974 22.2399999999999949 26.3199999999999932
 18.1599999999999966 20.1999999999999957 26.3199999999999932
 18.1599999999999966 22.2399999999999949 24.2799999999999940
 16.1199999999999974 20.1999999999999957 28.3599999999999923
 16.1199999999999974 22.2399999999999949 30.3999999999999915
 18.1599999999999966 20.1999999999999957 30.3999999999999915
 18.1599999999999966 22.2399999999999949 28.3599999999999923
 16.1199999999999974 20.1999999999999957 32.4399999999999977
 16.1199999999999974 22.2399999999999949 34.4799999999999969
 18.1599999999999966 20.1999999999999957 34.4799999999999969
 18.1599999999999966 22.2399999999999949 32.4399999999999977
 16.1199999999999974 26.3199999999999932  9.9999999999999964
 18.1599999999999966 24.2799999999999940  9.9999999999999964
 16.1199999999999974 24.2799999999999940 12.0399999999999956
 16.1199999999999974 26.3199999999999932 14.0799999999999947
 18.1599999999999966 24.2799999999999940 14.0799999999999947
 18.1599999999999966 26.3199999999999932 12.0399999999999956
 16.1199999999999974 24.2799999999999940 16.1199999999999974
 16.1199999999999974 26.3199999999999932 18.1599999999999966
 18.1599999999999966 24.2799999999999940 18.1599999999999966
 18.1599999999999966 26.3199999999999932 16.1199999999999974
 16.1199999999999974 24.2799999999999940 20.1999999999999957
 16.1199999999999974 26.3199999999999932 22.2399999999999949
 18.1599999999999966 24.2799999999999940 22.2399999999999949
 18.1599999999999966 26.3199999999999932 20.1999999999999957
 16.1199999999999974 24.2799999999999940 24.2799999999999940
 16.1199999999999974 26.3199999999999932 26.3199999999999932
 18.1599999999999966 24.2799999999999940 26.3199999999999932
 18.1599999999999966 26.3199999999999932 24.2799999999999940
 16.1199999999999974 24.2799999999999940 28.3599999999999923
 16.1199999999999974 26.3199999999999932 30.3999999999999915
 18.1599999999999966 24.2799999999999940 30.3999999999999915
 18.1599999999999966 26.3199999999999932 28.3599999999999923
 16.1199999999999974 24.2799999999999940 32.4399999999999977
 16.1199999999999974 26.3199999999999932 34.4799999999999969
 18.1599999999999966 24.2799999999999940 34.4799999999999969
 18.1599999999999966 26.3199999999999932 32.4399999999999977
 18.1599999999999966 28.3599999999999923  9.9999999999999964
 16.1199999999999974 28.3599999999999923 12.0399999999999956
 16.1199999999999974 30.3999999999999915 14.0799999999999947
 18.1599999999999966 28.3599999999999923 14.0799999999999947
 18.1599999999999966 30.3999999999999915 12.0399999999999956
 16.1199999999999974 28.3599999999999923 16.1199999999999974
 16.1199999999999974 30.3999999999999915 18.1599999999999966
 18.1599999999999966 28.3599999999999923 18.1599999999999966
 18.1599999999999966 30.3999999999999915 16.1199999999999974
 16.1199999999999974 28.3599999999999923 20.1999999999999957
 16.1199999999999974 30.3999999999999915 22.2399999999999949
 18.1599999999999966 28.3599999999999923 22.2399999999999949
 18.1599999999999966 30.3999999999999915 20.1999999999999957
 16.1199999999999974 28.3599999999999923 24.2799999999999940
 16.1199999999999974 30.3999999999999915 26.3199999999999932
 18.1599999999999966 28.3599999999999923 26.3199999999999932
 18.1599999999999966 30.3999999999999915 24.2799999999999940
 16.1199999999999974 28.3599999999999923 28.3599999999999923
 16.1199999999999974 30.3999999999999915 30.3999999999999915
 18.1599999999999966 28.3599999999999923 30.3999999999999915
 18.1599999999999966 30.3999999999999915 28.3599999999999923
 16.1199999999999974 28.3599999999999923 32.4399999999999977
 18.1599999999999966 28.3599999999999923 34.4799999999999969
 18.1599999999999966 30.3999999999999915 32.4399999999999977
 18.1599999999999966 32.4399999999999977 14.0799999999999947
 16.1199999999999974 32.4399999999999977 16.1199999999999974
 16.1199999999999974 34.4799999999999969 18.1599999999999966
 18.1599999999999966 32.4399999999999977 18.1599999999999966
 18.1599999999999966 34.4799999999999969 16.1199999999999974
 16.1199999999999974 32.4399999999999977 20.1999999999999957
 16.1199999999999974 34.4799999999999969 22.2399999999999949
 18.1599999999999966 32.4399999999999977 22.2399999999999949
 18.1599999999999966 34.4799999999999969 20.1999999999999957
 16.1199999999999974 32.4399999999999977 24.2799999999999940
 16.1199999999999974 34.4799999999999969 26.3199999999999932
 18.1599999999999966 32.4399999999999977 26.3199999999999932
 18.1599999999999966 34.4799999999999969 24.2799999999999940
 16.1199999999999974 32.4399999999999977 28.3599999999999923
 18.1599999999999966 32.4399999999999977 30.3999999999999915
 18.1599999999999966 34.4799999999999969 28.3599999999999923
 20.1999999999999957  9.9999999999999964 14.0799999999999947
 22.2399999999999949  9.9999999999999964 12.0399999999999956
 20.1999999999999957  9.9999999999999964 18.1599999999999966
 22.2399999999999949  9.9999999999999964 16.1199999999999974
 20.1999999999999957  9.9999999999999964 22.2399999999999949
 22.2399999999999949  9.9999999999999964 20.1999999999999957
 20.1999999999999957  9.9999999999999964 26.3199999999999932
 22.2399999999999949  9.9999999999999964 24.2799999999999940
 20.1999999999999957  9.9999999999999964 30.3999999999999915
 22.2399999999999949  9.9999999999999964 28.3599999999999923
 22.2399999999999949  9.9999999999999964 32.4399999999999977
 20.1999999999999957 14.0799999999999947  9.9999999999999964
 22.2399999999999949 12.0399999999999956  9.9999999999999964
 20.1999999999999957 12.0399999999999956 12.0399999999999956
 20.1999999999999957 14.0799999999999947 14.0799999999999947
 22.2399999999999949 12.0399999999999956 14.0799999999999947
 22.2399999999999949 14.0799999999999947 12.0399999999999956
 20.1999999999999957 12.0399999999999956 16.1199999999999974
 20.1999999999999957 14.0799999999999947 18.1599999999999966
 22.2399999999999949 12.0399999999999956 18.1599999999999966
 22.2399999999999949 14.0799999999999947 16.1199999999999974
 20.1999999999999957 12.0399999999999956 20.1999999999999957
 20.1999999999999957 14.0799999999999947 22.2399999999999949
 22.2399999999999949 12.0399999999999956 22.2399999999999949
 22.2399999999999949 14.0799999999999947 20.1999999999999957
 20.1999999999999957 12.0399999999999956 24.2799999999999940
 20.1999999999999957 14.0799999999999947 26.3199999999999932
 22.2399999999999949 12.0399999999999956 26.3199999999999932
 22.2399999999999949 14.0799999999999947 24.2799999999999940
 20.1999999999999957 12.0399999999999956 28.3599999999999923
 20.1999999999999957 14.0799999999999947 30.3999999999999915
 22.2399999999999949 12.0399999999999956 30.3999999999999915
 22.2399999999999949 14.0799999999999947 28.3599999999999923
 20.1999999999999957 12.0399999999999956 32.4399999999999977
 20.1999999999999957 14.0799999999999947 34.4799999999999969
 22.2399999999999949 12.0399999999999956 34.4799999999999969
 22.2399999999999949 14.0799999999999947 32.4399999999999977
 20.1999999999999957 18.1599999999999966  9.9999999999999964
 22.2399999999999949 16.1199999999999974  9.9999999999999964
 20.1999999999999957 16.1199999999999974 12.0399999999999956
 20.1999999999999957 18.1599999999999966 14.0799999999999947
 22.2399999999999949 16.1199999999999974 14.0799999999999947
 22.2399999999999949 18.1599999999999966 12.0399999999999956
 20.1999999999999957 16.1199999999999974 16.1199999999999974
 20.1999999999999957 18.1599999999999966 18.1599999999999966
 22.2399999999999949 16.1199999999999974 18.1599999999999966
 22.2399999999999949 18.1599999999999966 16.1199999999999974
 20.1999999999999957 16.1199999999999974 20.1999999999999957
 20.1999999999999957 18.1599999999999966 22.2399999999999949
 22.2399999999999949 16.1199999999999974 22.2399999999999949
 22.2399999999999949 18.1599999999999966 20.1999999999999957
 20.1999999999999957 16.1199999999999974 24.2799999999999940
 20.1999999999999957 18.1599999999999966 26.3199999999999932
 22.2399999999999949 16.1199999999999974 26.3199999999999932
 22.2399999999999949 18.1599999999999966 24.2799999999999940
 20.1999999999999957 16.1199999999999974 28.3599999999999923
 20.1999999999999957 18.1599999999999966 30.3999999999999915
 22.2399999999999949 16.1199999999999974 30.3999999999999915
 22.2399999999999949 18.1599999999999966 28.3599999999999923
 20.1999999999999957 16.1199999999999974 32.4399999999999977
 20.1999999999999957 18.1599999999999966 34.4799999999999969
 22.2399999999999949 16.1199999999999974 34.4799999999999969
 22.2399999999999949 18.1599999999999966 32.4399999999999977
 20.1999999999999957 22.2399999999999949  9.9999999999999964
 22.2399999999999949 20.1999999999999957  9.9999999999999964
 20.1999999999999957 20.1999999999999957 12.0399999999999956
 20.1999999999999957 22.2399999999999949 14.0799999999999947
 22.2399999999999949 20.1999999999999957 14.0799999999999947
 22.2399999999999949 22.2399999999999949 12.0399999999999956
 20.1999999999999957 20.1999999999999957 16.1199999999999974
 20.1999999999999957 22.2399999999999949 18.1599999999999966
 22.2399999999999949 20.1999999999999957 18.1599999999999966
 22.2399999999999949 22.2399999999999949 16.1199999999999974
 20.1999999999999957 20.1999999999999957 20.1999999999999957
 20.1999999999999957 22.2399999999999949 22.2399999999999949
 22.2399999999999949 20.1999999999999957 22.2399999999999949
 22.2399999999999949 22.2399999999999949 20.1999999999999957
 20.1999999999999957 20.1999999999999957 24.2799999999999940
 20.1999999999999957 22.2399999999999949 26.3199999999999932
 22.2399999999999949 20.1999999999999957 26.3199999999999932
 22.2399999999999949 22.2399999999999949 24.2799999999999940
 20.1999999999999957 20.1999999999999957 28.3599999999999923
 20.1999999999999957 22.2399999999999949 30.3999999999999915
 22.2399999999999949 20.1999999999999957 30.3999999999999915
 22.2399999999999949 22.2399999999999949 28.3599999999999923
 20.1999999999999957 20.1999999999999957 32.4399999999999977
 20.1999999999999957 22.2399999999999949 34.4799999999999969
 22.2399999999999949 20.1999999999999957 34.4799999999999969
 22.2399999999999949 22.2399999999999949 32.4399999999999977
 20.1999999999999957 26.3199999999999932  9.9999999999999964
 22.2399999999999949 24.2799999999999940  9.9999999999999964
 20.1999999999999957 24.2799999999999940 12.0399999999999956
 20.1999999999999957 26.3199999999999932 14.0799999999999947
 22.2399999999999949 24.2799999999999940 14.0799999999999947
 22.2399999999999949 26.3199999999999932 12.0399999999999956
 20.1999999999999957 24.2799999999999940 16.1199999999999974
 20.1999999999999957 26.3199999999999932 18.1599999999999966
 22.2399999999999949 24.2799999999999940 18.1599999999999966
 22.2399999999999949 26.3199999999999932 16.1199999999999974
 20.1999999999999957 24.2799999999999940 20.1999999999999957
 20.1999999999999957 26.3199999999999932 22.2399999999999949
 22.2399999999999949 24.2799999999999940 22.2399999999999949
 22.2399999999999949 26.3199999999999932 20.1999999999999957
 20.1999999999999957 24.2799999999999940 24.2799999999999940
 20.1999999999999957 26.3199999999999932 26.3199999999999932
 22.2399999999999949 24.2799999999999940 26.3199999999999932
 22.2399999999999949 26.3199999999999932 24.2799999999999940
 20.1999999999999957 24.2799999999999940 28.3599999999999923
 20.1999999999999957 26.3199999999999932 30.3999999999999915
 22.2399999999999949 24.2799999999999940 30.3999999999999915
 22.2399999999999949 26.3199999999999932 28.3599999999999923
 20.1999999999999957 24.2799999999999940 32.4399999999999977
 20.1999999999999957 26.3199999999999932 34.4799999999999969
 22.2399999999999949 24.2799999999999940 34.4799999999999969
 22.2399999999999949 26.3199999999999932 32.4399999999999977
 20.1999999999999957 30.3999999999999915  9.9999999999999964
 22.2399999999999949 28.3599999999999923  9.9999999999999964
 20.1999999999999957 28.3599999999999923 12.0399999999999956
 20.1999999999999957 30.3999999999999915 14.0799999999999947
 22.2399999999999949 28.3599999999999923 14.0799999999999947
 22.2399999999999949 30.3999999999999915 12.0399999999999956
 20.1999999999999957 28.3599999999999923 16.1199999999999974
 20.1999999999999957 30.3999999999999915 18.1599999999999966
 22.2399999999999949 28.3599999999999923 18.1599999999999966
 22.2399999999999949 30.3999999999999915 16.1199999999999974
 20.1999999999999957 28.3599999999999923 20.1999999999999957
 20.1999999999999957 30.3999999999999915 22.2399999999999949
 22.2399999999999949 28.3599999999999923 22.2399999999999949
 22.2399999999999949 30.3999999999999915 20.1999999999999957
 20.1999999999999957 28.3599999999999923 24.2799999999999940
 20.1999999999999957 30.3999999999999915 26.3199999999999932
 22.2399999999999949 28.3599999999999923 26.3199999999999932
 22.2399999999999949 30.3999999999999915 24.2799999999999940
 20.1999999999999957 28.3599999999999923 28.3599999999999923
 20.1999999999999957 30.3999999999999915 30.3999999999999915
 22.2399999999999949 28.3599999999999923 30.3999999999999915
 22.2399999999999949 30.3999999999999915 28.3599999999999923
 20.1999999999999957 28.3599999999999923 32.4399999999999977
 20.1999999999999957 30.3999999999999915 34.4799999999999969
 22.2399999999999949 28.3599999999999923 34.4799999999999969
 22.2399999999999949 30.3999999999999915 32.4399999999999977
 22.2399999999999949 32.4399999999999977  9.9999999999999964
 20.1999999999999957 32.4399999999999977 12.0399999999999956
 20.1999999999999957 34.4799999999999969 14.0799999999999947
 22.2399999999999949 32.4399999999999977 14.0799999999999947
 22.2399999999999949 34.4799999999999969 12.0399999999999956
 20.1999999999999957 32.4399999999999977 16.1199999999999974
 20.1999999999999957 34.4799999999999969 18.1599999999999966
 22.2399999999999949 32.4399999999999977 18.1599999999999966
 22.2399999999999949 34.4799999999999969 16.1199999999999974
 20.1999999999999957 32.4399999999999977 20.1999999999999957
 20.1999999999999957 34.4799999999999969 22.2399999999999949
 22.2399999999999949 32.4399999999999977 22.2399999999999949
 22.2399999999999949 34.4799999999999969 20.1999999999999957
 20.1999999999999957 32.4399999999999977 24.2799999999999940
 20.1999999999999957 34.4799999999999969 26.3199999999999932
 22.2399999999999949 32.4399999999999977 26.3199999999999932
 22.2399999999999949 34.4799999999999969 24.2799999999999940
 20.1999999999999957 32.4399999999999977 28.3599999999999923
 20.1999999999999957 34.4799999999999969 30.3999999999999915
 22.2399999999999949 32.4399999999999977 30.3999999999999915
 22.2399999999999949 34.4799999999999969 28.3599999999999923
 20.1999999999999957 32.4399999999999977 32.4399999999999977
 22.2399999999999949 32.4399999999999977 34.4799999999999969
 22.2399999999999949 34.4799999999999969 32.4399999999999977
 24.2799999999999940  9.9999999999999964 14.0799999999999947
 24.2799999999999940  9.9999999999999964 18.1599999999999966
 26.3199999999999932  9.9999999999999964 16.1199999999999974
 24.2799999999999940  9.9999999999999964 22.2399999999999949
 26.3199999999999932  9.9999999999999964 20.1999999999999957
 24.2799999999999940  9.9999999999999964 26.3199999999999932
 26.3199999999999932  9.9999999999999964 24.2799999999999940
 24.2799999999999940  9.9999999999999964 30.3999999999999915
 26.3199999999999932  9.9999999999999964 28.3599999999999923
 24.2799999999999940 14.0799999999999947  9.9999999999999964
 24.2799999999999940 12.0399999999999956 12.0399999999999956
 24.2799999999999940 14.0799999999999947 14.0799999999999947
 26.3199999999999932 12.0399999999999956 14.0799999999999947
 26.3199999999999932 14.0799999999999947 12.0399999999999956
 24.2799999999999940 12.0399999999999956 16.1199999999999974
 24.2799999999999940 14.0799999999999947 18.1599999999999966
 26.3199999999999932 12.0399999999999956 18.1599999999999966
 26.3199999999999932 14.0799999999999947 16.1199999999999974
 24.2799999999999940 12.0399999999999956 20.1999999999999957
 24.2799999999999940 14.0799999999999947 22.2399999999999949
 26.3199999999999932 12.0399999999999956 22.2399999999999949
 26.3199999999999932 14.0799999999999947 20.1999999999999957
 24.2799999999999940 12.0399999999999956 24.2799999999999940
 24.2799999999999940 14.0799999999999947 26.3199999999999932
 26.3199999999999932 12.0399999999999956 26.3199999999999932
 26.3199999999999932 14.0799999999999947 24.2799999999999940
 24.2799999999999940 12.0399999999999956 28.3599999999999923
 24.2799999999999940 14.0799999999999947 30.3999999999999915
 26.3199999999999932 12.0399999999999956 30.3999999999999915
 26.3199999999999932 14.0799999999999947 28.3599999999999923
 24.2799999999999940 12.0399999999999956 32.4399999999999977
 24.2799999999999940 14.0799999999999947 34.4799999999999969