Pt 
 1.0000000000000000
    56.5281778854822292    0.0000000000000000    0.0000000000000000
     0.0000000000000000   54.7403616063763963    0.0000000000000000
     0.0000000000000000    0.0000000000000000   47.7185858225126651
 Pt 
 971
Cartesian
 28.2640889427411111 25.5363620229562827 10.0000000000000018
 28.2640889427411111 25.5363620229562827 12.7718585822512676
 28.2640889427411111 25.5363620229562827 15.5437171645025352
 28.2640889427411111 25.5363620229562827 18.3155757467538010
 28.2640889427411111 25.5363620229562827 21.0874343290050668
 28.2640889427411111 25.5363620229562827 23.8592929112563326
 28.2640889427411111 25.5363620229562827 26.6311514935076019
 28.2640889427411111 25.5363620229562827 29.4030100757588642
 28.2640889427411111 25.5363620229562827 32.1748686580101335
 28.2640889427411111 25.5363620229562827 34.9467272402613958
 28.2640889427411111 25.5363620229562827 37.7185858225126651
 30.5471000605837517 26.2781573018620591 11.3859292911256347
 30.5471000605837517 26.2781573018620591 14.1577878733769005
 30.5471000605837517 26.2781573018620591 16.9296464556281663
 30.5471000605837517 26.2781573018620591 19.7015050378794356
 30.5471000605837517 26.2781573018620591 22.4733636201306979
 30.5471000605837517 26.2781573018620591 25.2452222023819672
 30.5471000605837517 26.2781573018620591 28.0170807846332330
 30.5471000605837517 26.2781573018620591 30.7889393668844988
 30.5471000605837517 26.2781573018620591 33.5607979491357611
 30.5471000605837517 26.2781573018620591 36.3326565313870304
 28.2640889427411111 27.9368619708837969 11.3859292911256347
 28.2640889427411111 27.9368619708837969 14.1577878733769005
 28.2640889427411111 27.9368619708837969 16.9296464556281663
 28.2640889427411111 27.9368619708837969 19.7015050378794356
 28.2640889427411111 27.9368619708837969 22.4733636201306979
 28.2640889427411111 27.9368619708837969 25.2452222023819672
 28.2640889427411111 27.9368619708837969 28.0170807846332330
 28.2640889427411111 27.9368619708837969 30.7889393668844988
 28.2640889427411111 27.9368619708837969 33.5607979491357611
 28.2640889427411111 27.9368619708837969 36.3326565313870304
 25.9810778248984704 26.2781573018620627 11.3859292911256347
 25.9810778248984704 26.2781573018620627 14.1577878733769005
 25.9810778248984704 26.2781573018620627 16.9296464556281663
 25.9810778248984704 26.2781573018620627 19.7015050378794356
 25.9810778248984704 26.2781573018620627 22.4733636201306979
 25.9810778248984704 26.2781573018620627 25.2452222023819672
 25.9810778248984704 26.2781573018620627 28.0170807846332330
 25.9810778248984704 26.2781573018620627 30.7889393668844988
 25.9810778248984704 26.2781573018620627 33.5607979491357611
 25.9810778248984704 26.2781573018620627 36.3326565313870304
 26.8531104752204683 23.5943167700867491 11.3859292911256347
 26.8531104752204683 23.5943167700867491 14.1577878733769005
 26.8531104752204683 23.5943167700867491 16.9296464556281663
 26.8531104752204683 23.5943167700867491 19.7015050378794356
 26.8531104752204683 23.5943167700867491 22.4733636201306979
 26.8531104752204683 23.5943167700867491 25.2452222023819672
 26.8531104752204683 23.5943167700867491 28.0170807846332330
 26.8531104752204683 23.5943167700867491 30.7889393668844988
 26.8531104752204683 23.5943167700867491 33.5607979491357611
 26.8531104752204683 23.5943167700867491 36.3326565313870304
 29.6750674102617538 23.5943167700867455 11.3859292911256347
 29.6750674102617538 23.5943167700867455 14.1577878733769005
 29.6750674102617538 23.5943167700867455 16.9296464556281663
 29.6750674102617538 23.5943167700867455 19.7015050378794356
 29.6750674102617538 23.5943167700867455 22.4733636201306979
 29.6750674102617538 23.5943167700867455 25.2452222023819672
 29.6750674102617538 23.5943167700867455 28.0170807846332330
 29.6750674102617538 23.5943167700867455 30.7889393668844988
 29.6750674102617538 23.5943167700867455 33.5607979491357611
 29.6750674102617538 23.5943167700867455 36.3326565313870304
 32.8301111784263924 27.0199525807678391 12.7718585822512676
 32.8301111784263924 27.0199525807678391 15.5437171645025334
 32.8301111784263924 27.0199525807678391 18.3155757467538010
 32.8301111784263924 27.0199525807678391 21.0874343290050668
 32.8301111784263924 27.0199525807678391 23.8592929112563326
 32.8301111784263924 27.0199525807678391 26.6311514935075984
 32.8301111784263924 27.0199525807678391 29.4030100757588642
 32.8301111784263924 27.0199525807678391 32.1748686580101335
 32.8301111784263924 27.0199525807678391 34.9467272402613958
 30.5471000605837517 28.6786572497895733 12.7718585822512676
 30.5471000605837517 28.6786572497895733 15.5437171645025334
 30.5471000605837517 28.6786572497895733 18.3155757467538010
 30.5471000605837517 28.6786572497895733 21.0874343290050668
 30.5471000605837517 28.6786572497895733 23.8592929112563326
 30.5471000605837517 28.6786572497895733 26.6311514935075984
 30.5471000605837517 28.6786572497895733 29.4030100757588642
 30.5471000605837517 28.6786572497895733 32.1748686580101335
 30.5471000605837517 28.6786572497895733 34.9467272402613958
 28.2640889427411111 30.3373619188113111 12.7718585822512676
 28.2640889427411111 30.3373619188113111 15.5437171645025334
 28.2640889427411111 30.3373619188113111 18.3155757467538010
 28.2640889427411111 30.3373619188113111 21.0874343290050668
 28.2640889427411111 30.3373619188113111 23.8592929112563326
 28.2640889427411111 30.3373619188113111 26.6311514935075984
 28.2640889427411111 30.3373619188113111 29.4030100757588642
 28.2640889427411111 30.3373619188113111 32.1748686580101335
 28.2640889427411111 30.3373619188113111 34.9467272402613958
 25.9810778248984704 28.6786572497895733 12.7718585822512676
 25.9810778248984704 28.6786572497895733 15.5437171645025334
 25.9810778248984704 28.6786572497895733 18.3155757467538010
 25.9810778248984704 28.6786572497895733 21.0874343290050668
 25.9810778248984704 28.6786572497895733 23.8592929112563326
 25.9810778248984704 28.6786572497895733 26.6311514935075984
 25.9810778248984704 28.6786572497895733 29.4030100757588642
 25.9810778248984704 28.6786572497895733 32.1748686580101335
 25.9810778248984704 28.6786572497895733 34.9467272402613958
 23.6980667070558333 27.0199525807678391 12.7718585822512676
 23.6980667070558333 27.0199525807678391 15.5437171645025334
 23.6980667070558333 27.0199525807678391 18.3155757467538010
 23.6980667070558333 27.0199525807678391 21.0874343290050668
 23.6980667070558333 27.0199525807678391 23.8592929112563326
 23.6980667070558333 27.0199525807678391 26.6311514935075984
 23.6980667070558333 27.0199525807678391 29.4030100757588642
 23.6980667070558333 27.0199525807678391 32.1748686580101335
 23.6980667070558333 27.0199525807678391 34.9467272402613958
 24.5700993573778277 24.3361120489925256 12.7718585822512676
 24.5700993573778277 24.3361120489925256 15.5437171645025334
 24.5700993573778277 24.3361120489925256 18.3155757467538010
 24.5700993573778277 24.3361120489925256 21.0874343290050668
 24.5700993573778277 24.3361120489925256 23.8592929112563326
 24.5700993573778277 24.3361120489925256 26.6311514935075984
 24.5700993573778277 24.3361120489925256 29.4030100757588642
 24.5700993573778277 24.3361120489925256 32.1748686580101335
 24.5700993573778277 24.3361120489925256 34.9467272402613958
 25.4421320076998256 21.6522715172172120 12.7718585822512676
 25.4421320076998256 21.6522715172172120 15.5437171645025334
 25.4421320076998256 21.6522715172172120 18.3155757467538010
 25.4421320076998256 21.6522715172172120 21.0874343290050668
 25.4421320076998256 21.6522715172172120 23.8592929112563326
 25.4421320076998256 21.6522715172172120 26.6311514935075984
 25.4421320076998256 21.6522715172172120 29.4030100757588642
 25.4421320076998256 21.6522715172172120 32.1748686580101335
 25.4421320076998256 21.6522715172172120 34.9467272402613958
 28.2640889427411111 21.6522715172172120 12.7718585822512676
 28.2640889427411111 21.6522715172172120 15.5437171645025334
 28.2640889427411111 21.6522715172172120 18.3155757467538010
 28.2640889427411111 21.6522715172172120 21.0874343290050668
 28.2640889427411111 21.6522715172172120 23.8592929112563326
 28.2640889427411111 21.6522715172172120 26.6311514935075984
 28.2640889427411111 21.6522715172172120 29.4030100757588642
 28.2640889427411111 21.6522715172172120 32.1748686580101335
 28.2640889427411111 21.6522715172172120 34.9467272402613958
 31.0860458777823965 21.6522715172172120 12.7718585822512676
 31.0860458777823965 21.6522715172172120 15.5437171645025334
 31.0860458777823965 21.6522715172172120 18.3155757467538010
 31.0860458777823965 21.6522715172172120 21.0874343290050668
 31.0860458777823965 21.6522715172172120 23.8592929112563326
 31.0860458777823965 21.6522715172172120 26.6311514935075984
 31.0860458777823965 21.6522715172172120 29.4030100757588642
 31.0860458777823965 21.6522715172172120 32.1748686580101335
 31.0860458777823965 21.6522715172172120 34.9467272402613958
 31.9580785281043944 24.3361120489925256 12.7718585822512676
 31.9580785281043944 24.3361120489925256 15.5437171645025334
 31.9580785281043944 24.3361120489925256 18.3155757467538010
 31.9580785281043944 24.3361120489925256 21.0874343290050668
 31.9580785281043944 24.3361120489925256 23.8592929112563326
 31.9580785281043944 24.3361120489925256 26.6311514935075984
 31.9580785281043944 24.3361120489925256 29.4030100757588642
 31.9580785281043944 24.3361120489925256 32.1748686580101335
 31.9580785281043944 24.3361120489925256 34.9467272402613958
 35.1131222962690259 27.7617478596736156 14.1577878733769005
 35.1131222962690259 27.7617478596736156 16.9296464556281663
 35.1131222962690259 27.7617478596736156 19.7015050378794321
 35.1131222962690259 27.7617478596736156 22.4733636201306979
 35.1131222962690259 27.7617478596736156 25.2452222023819672
 35.1131222962690259 27.7617478596736156 28.0170807846332295
 35.1131222962690259 27.7617478596736156 30.7889393668844988
 35.1131222962690259 27.7617478596736156 33.5607979491357611
 32.8301111784263924 29.4204525286953533 14.1577878733769005
 32.8301111784263924 29.4204525286953533 16.9296464556281663
 32.8301111784263924 29.4204525286953533 19.7015050378794321
 32.8301111784263924 29.4204525286953533 22.4733636201306979
 32.8301111784263924 29.4204525286953533 25.2452222023819672
 32.8301111784263924 29.4204525286953533 28.0170807846332295
 32.8301111784263924 29.4204525286953533 30.7889393668844988
 32.8301111784263924 29.4204525286953533 33.5607979491357611
 30.5471000605837517 31.0791571977170875 14.1577878733769005
 30.5471000605837517 31.0791571977170875 16.9296464556281663
 30.5471000605837517 31.0791571977170875 19.7015050378794321
 30.5471000605837517 31.0791571977170875 22.4733636201306979
 30.5471000605837517 31.0791571977170875 25.2452222023819672
 30.5471000605837517 31.0791571977170875 28.0170807846332295
 30.5471000605837517 31.0791571977170875 30.7889393668844988
 30.5471000605837517 31.0791571977170875 33.5607979491357611
 28.2640889427411111 32.7378618667388253 14.1577878733769005
 28.2640889427411111 32.7378618667388253 16.9296464556281663
 28.2640889427411111 32.7378618667388253 19.7015050378794321
 28.2640889427411111 32.7378618667388253 22.4733636201306979
 28.2640889427411111 32.7378618667388253 25.2452222023819672
 28.2640889427411111 32.7378618667388253 28.0170807846332295
 28.2640889427411111 32.7378618667388253 30.7889393668844988
 28.2640889427411111 32.7378618667388253 33.5607979491357611
 25.9810778248984704 31.0791571977170875 14.1577878733769005
 25.9810778248984704 31.0791571977170875 16.9296464556281663
 25.9810778248984704 31.0791571977170875 19.7015050378794321
 25.9810778248984704 31.0791571977170875 22.4733636201306979
 25.9810778248984704 31.0791571977170875 25.2452222023819672
 25.9810778248984704 31.0791571977170875 28.0170807846332295
 25.9810778248984704 31.0791571977170875 30.7889393668844988
 25.9810778248984704 31.0791571977170875 33.5607979491357611
 23.6980667070558333 29.4204525286953533 14.1577878733769005
 23.6980667070558333 29.4204525286953533 16.9296464556281663
 23.6980667070558333 29.4204525286953533 19.7015050378794321
 23.6980667070558333 29.4204525286953533 22.4733636201306979
 23.6980667070558333 29.4204525286953533 25.2452222023819672
 23.6980667070558333 29.4204525286953533 28.0170807846332295
 23.6980667070558333 29.4204525286953533 30.7889393668844988
 23.6980667070558333 29.4204525286953533 33.5607979491357611
 21.4150555892131926 27.7617478596736191 14.1577878733769005
 21.4150555892131926 27.7617478596736191 16.9296464556281663
 21.4150555892131926 27.7617478596736191 19.7015050378794321
 21.4150555892131926 27.7617478596736191 22.4733636201306979
 21.4150555892131926 27.7617478596736191 25.2452222023819672
 21.4150555892131926 27.7617478596736191 28.0170807846332295
 21.4150555892131926 27.7617478596736191 30.7889393668844988
 21.4150555892131926 27.7617478596736191 33.5607979491357611
 22.2870882395351906 25.0779073278983056 14.1577878733769005
 22.2870882395351906 25.0779073278983056 16.9296464556281663
 22.2870882395351906 25.0779073278983056 19.7015050378794321
 22.2870882395351906 25.0779073278983056 22.4733636201306979
 22.2870882395351906 25.0779073278983056 25.2452222023819672
 22.2870882395351906 25.0779073278983056 28.0170807846332295
 22.2870882395351906 25.0779073278983056 30.7889393668844988
 22.2870882395351906 25.0779073278983056 33.5607979491357611
 23.1591208898571850 22.3940667961229920 14.1577878733769005
 23.1591208898571850 22.3940667961229920 16.9296464556281663
 23.1591208898571850 22.3940667961229920 19.7015050378794321
 23.1591208898571850 22.3940667961229920 22.4733636201306979
 23.1591208898571850 22.3940667961229920 25.2452222023819672
 23.1591208898571850 22.3940667961229920 28.0170807846332295
 23.1591208898571850 22.3940667961229920 30.7889393668844988
 23.1591208898571850 22.3940667961229920 33.5607979491357611
 24.0311535401791829 19.7102262643476784 14.1577878733769005
 24.0311535401791829 19.7102262643476784 16.9296464556281663
 24.0311535401791829 19.7102262643476784 19.7015050378794321
 24.0311535401791829 19.7102262643476784 22.4733636201306979
 24.0311535401791829 19.7102262643476784 25.2452222023819672
 24.0311535401791829 19.7102262643476784 28.0170807846332295
 24.0311535401791829 19.7102262643476784 30.7889393668844988
 24.0311535401791829 19.7102262643476784 33.5607979491357611
 26.8531104752204683 19.7102262643476749 14.1577878733769005
 26.8531104752204683 19.7102262643476749 16.9296464556281663
 26.8531104752204683 19.7102262643476749 19.7015050378794321
 26.8531104752204683 19.7102262643476749 22.4733636201306979
 26.8531104752204683 19.7102262643476749 25.2452222023819672
 26.8531104752204683 19.7102262643476749 28.0170807846332295
 26.8531104752204683 19.7102262643476749 30.7889393668844988
 26.8531104752204683 19.7102262643476749 33.5607979491357611
 29.6750674102617538 19.7102262643476749 14.1577878733769005
 29.6750674102617538 19.7102262643476749 16.9296464556281663
 29.6750674102617538 19.7102262643476749 19.7015050378794321
 29.6750674102617538 19.7102262643476749 22.4733636201306979
 29.6750674102617538 19.7102262643476749 25.2452222023819672
 29.6750674102617538 19.7102262643476749 28.0170807846332295
 29.6750674102617538 19.7102262643476749 30.7889393668844988
 29.6750674102617538 19.7102262643476749 33.5607979491357611
 32.4970243453030392 19.7102262643476749 14.1577878733769005
 32.4970243453030392 19.7102262643476749 16.9296464556281663
 32.4970243453030392 19.7102262643476749 19.7015050378794321
 32.4970243453030392 19.7102262643476749 22.4733636201306979
 32.4970243453030392 19.7102262643476749 25.2452222023819672
 32.4970243453030392 19.7102262643476749 28.0170807846332295
 32.4970243453030392 19.7102262643476749 30.7889393668844988
 32.4970243453030392 19.7102262643476749 33.5607979491357611
 33.3690569956250371 22.3940667961229884 14.1577878733769005
 33.3690569956250371 22.3940667961229884 16.9296464556281663
 33.3690569956250371 22.3940667961229884 19.7015050378794321
 33.3690569956250371 22.3940667961229884 22.4733636201306979
 33.3690569956250371 22.3940667961229884 25.2452222023819672
 33.3690569956250371 22.3940667961229884 28.0170807846332295
 33.3690569956250371 22.3940667961229884 30.7889393668844988
 33.3690569956250371 22.3940667961229884 33.5607979491357611
 34.2410896459470280 25.0779073278983020 14.1577878733769005
 34.2410896459470280 25.0779073278983020 16.9296464556281663
 34.2410896459470280 25.0779073278983020 19.7015050378794321
 34.2410896459470280 25.0779073278983020 22.4733636201306979
 34.2410896459470280 25.0779073278983020 25.2452222023819672
 34.2410896459470280 25.0779073278983020 28.0170807846332295
 34.2410896459470280 25.0779073278983020 30.7889393668844988
 34.2410896459470280 25.0779073278983020 33.5607979491357611
 37.3961334141116666 28.5035431385793920 15.5437171645025334
 37.3961334141116666 28.5035431385793920 18.3155757467538010
 37.3961334141116666 28.5035431385793920 21.0874343290050668
 37.3961334141116666 28.5035431385793920 23.8592929112563326
 37.3961334141116666 28.5035431385793920 26.6311514935075984
 37.3961334141116666 28.5035431385793920 29.4030100757588642
 37.3961334141116666 28.5035431385793920 32.1748686580101335
 35.1131222962690259 30.1622478076011298 15.5437171645025334
 35.1131222962690259 30.1622478076011298 18.3155757467538010
 35.1131222962690259 30.1622478076011298 21.0874343290050668
 35.1131222962690259 30.1622478076011298 23.8592929112563326
 35.1131222962690259 30.1622478076011298 26.6311514935075984
 35.1131222962690259 30.1622478076011298 29.4030100757588642
 35.1131222962690259 30.1622478076011298 32.1748686580101335
 32.8301111784263924 31.8209524766228675 15.5437171645025334
 32.8301111784263924 31.8209524766228675 18.3155757467538010
 32.8301111784263924 31.8209524766228675 21.0874343290050668
 32.8301111784263924 31.8209524766228675 23.8592929112563326
 32.8301111784263924 31.8209524766228675 26.6311514935075984
 32.8301111784263924 31.8209524766228675 29.4030100757588642
 32.8301111784263924 31.8209524766228675 32.1748686580101335
 30.5471000605837517 33.4796571456446017 15.5437171645025334
 30.5471000605837517 33.4796571456446017 18.3155757467538010
 30.5471000605837517 33.4796571456446017 21.0874343290050668
 30.5471000605837517 33.4796571456446017 23.8592929112563326
 30.5471000605837517 33.4796571456446017 26.6311514935075984
 30.5471000605837517 33.4796571456446017 29.4030100757588642
 30.5471000605837517 33.4796571456446017 32.1748686580101335
 28.2640889427411111 35.1383618146663395 15.5437171645025334
 28.2640889427411111 35.1383618146663395 18.3155757467538010
 28.2640889427411111 35.1383618146663395 21.0874343290050668
 28.2640889427411111 35.1383618146663395 23.8592929112563326
 28.2640889427411111 35.1383618146663395 26.6311514935075984
 28.2640889427411111 35.1383618146663395 29.4030100757588642
 28.2640889427411111 35.1383618146663395 32.1748686580101335
 25.9810778248984704 33.4796571456446017 15.5437171645025334
 25.9810778248984704 33.4796571456446017 18.3155757467538010
 25.9810778248984704 33.4796571456446017 21.0874343290050668
 25.9810778248984704 33.4796571456446017 23.8592929112563326
 25.9810778248984704 33.4796571456446017 26.6311514935075984
 25.9810778248984704 33.4796571456446017 29.4030100757588642
 25.9810778248984704 33.4796571456446017 32.1748686580101335
 23.6980667070558333 31.8209524766228675 15.5437171645025334
 23.6980667070558333 31.8209524766228675 18.3155757467538010
 23.6980667070558333 31.8209524766228675 21.0874343290050668
 23.6980667070558333 31.8209524766228675 23.8592929112563326
 23.6980667070558333 31.8209524766228675 26.6311514935075984
 23.6980667070558333 31.8209524766228675 29.4030100757588642
 23.6980667070558333 31.8209524766228675 32.1748686580101335
 21.4150555892131926 30.1622478076011333 15.5437171645025334
 21.4150555892131926 30.1622478076011333 18.3155757467538010
 21.4150555892131926 30.1622478076011333 21.0874343290050668
 21.4150555892131926 30.1622478076011333 23.8592929112563326
 21.4150555892131926 30.1622478076011333 26.6311514935075984
 21.4150555892131926 30.1622478076011333 29.4030100757588642
 21.4150555892131926 30.1622478076011333 32.1748686580101335
 19.1320444713705555 28.5035431385793956 15.5437171645025334
 19.1320444713705555 28.5035431385793956 18.3155757467538010
 19.1320444713705555 28.5035431385793956 21.0874343290050668
 19.1320444713705555 28.5035431385793956 23.8592929112563326
 19.1320444713705555 28.5035431385793956 26.6311514935075984
 19.1320444713705555 28.5035431385793956 29.4030100757588642
 19.1320444713705555 28.5035431385793956 32.1748686580101335
 20.0040771216925499 25.8197026068040820 15.5437171645025334
 20.0040771216925499 25.8197026068040820 18.3155757467538010
 20.0040771216925499 25.8197026068040820 21.0874343290050668
 20.0040771216925499 25.8197026068040820 23.8592929112563326
 20.0040771216925499 25.8197026068040820 26.6311514935075984
 20.0040771216925499 25.8197026068040820 29.4030100757588642
 20.0040771216925499 25.8197026068040820 32.1748686580101335
 20.8761097720145443 23.1358620750287685 15.5437171645025334
 20.8761097720145443 23.1358620750287685 18.3155757467538010
 20.8761097720145443 23.1358620750287685 21.0874343290050668
 20.8761097720145443 23.1358620750287685 23.8592929112563326
 20.8761097720145443 23.1358620750287685 26.6311514935075984
 20.8761097720145443 23.1358620750287685 29.4030100757588642
 20.8761097720145443 23.1358620750287685 32.1748686580101335
 21.7481424223365423 20.4520215432534549 15.5437171645025334
 21.7481424223365423 20.4520215432534549 18.3155757467538010
 21.7481424223365423 20.4520215432534549 21.0874343290050668
 21.7481424223365423 20.4520215432534549 23.8592929112563326
 21.7481424223365423 20.4520215432534549 26.6311514935075984
 21.7481424223365423 20.4520215432534549 29.4030100757588642
 21.7481424223365423 20.4520215432534549 32.1748686580101335
 22.6201750726585402 17.7681810114781413 15.5437171645025334
 22.6201750726585402 17.7681810114781413 18.3155757467538010
 22.6201750726585402 17.7681810114781413 21.0874343290050668
 22.6201750726585402 17.7681810114781413 23.8592929112563326
 22.6201750726585402 17.7681810114781413 26.6311514935075984
 22.6201750726585402 17.7681810114781413 29.4030100757588642
 22.6201750726585402 17.7681810114781413 32.1748686580101335
 25.4421320076998256 17.7681810114781413 15.5437171645025334
 25.4421320076998256 17.7681810114781413 18.3155757467538010
 25.4421320076998256 17.7681810114781413 21.0874343290050668
 25.4421320076998256 17.7681810114781413 23.8592929112563326
 25.4421320076998256 17.7681810114781413 26.6311514935075984
 25.4421320076998256 17.7681810114781413 29.4030100757588642
 25.4421320076998256 17.7681810114781413 32.1748686580101335
 28.2640889427411111 17.7681810114781413 15.5437171645025334
 28.2640889427411111 17.7681810114781413 18.3155757467538010
 28.2640889427411111 17.7681810114781413 21.0874343290050668
 28.2640889427411111 17.7681810114781413 23.8592929112563326
 28.2640889427411111 17.7681810114781413 26.6311514935075984
 28.2640889427411111 17.7681810114781413 29.4030100757588642
 28.2640889427411111 17.7681810114781413 32.1748686580101335
 31.0860458777823965 17.7681810114781413 15.5437171645025334
 31.0860458777823965 17.7681810114781413 18.3155757467538010
 31.0860458777823965 17.7681810114781413 21.0874343290050668
 31.0860458777823965 17.7681810114781413 23.8592929112563326
 31.0860458777823965 17.7681810114781413 26.6311514935075984
 31.0860458777823965 17.7681810114781413 29.4030100757588642
 31.0860458777823965 17.7681810114781413 32.1748686580101335
 33.9080028128236819 17.7681810114781413 15.5437171645025334
 33.9080028128236819 17.7681810114781413 18.3155757467538010
 33.9080028128236819 17.7681810114781413 21.0874343290050668
 33.9080028128236819 17.7681810114781413 23.8592929112563326
 33.9080028128236819 17.7681810114781413 26.6311514935075984
 33.9080028128236819 17.7681810114781413 29.4030100757588642
 33.9080028128236819 17.7681810114781413 32.1748686580101335
 34.7800354631456798 20.4520215432534513 15.5437171645025334
 34.7800354631456798 20.4520215432534513 18.3155757467538010
 34.7800354631456798 20.4520215432534513 21.0874343290050668
 34.7800354631456798 20.4520215432534513 23.8592929112563326
 34.7800354631456798 20.4520215432534513 26.6311514935075984
 34.7800354631456798 20.4520215432534513 29.4030100757588642
 34.7800354631456798 20.4520215432534513 32.1748686580101335
 35.6520681134676778 23.1358620750287685 15.5437171645025334
 35.6520681134676778 23.1358620750287685 18.3155757467538010
 35.6520681134676778 23.1358620750287685 21.0874343290050668
 35.6520681134676778 23.1358620750287685 23.8592929112563326
 35.6520681134676778 23.1358620750287685 26.6311514935075984
 35.6520681134676778 23.1358620750287685 29.4030100757588642
 35.6520681134676778 23.1358620750287685 32.1748686580101335
 36.5241007637896757 25.8197026068040785 15.5437171645025334
 36.5241007637896757 25.8197026068040785 18.3155757467538010
 36.5241007637896757 25.8197026068040785 21.0874343290050668
 36.5241007637896757 25.8197026068040785 23.8592929112563326
 36.5241007637896757 25.8197026068040785 26.6311514935075984
 36.5241007637896757 25.8197026068040785 29.4030100757588642
 36.5241007637896757 25.8197026068040785 32.1748686580101335
 39.6791445319543072 29.2453384174851720 16.9296464556281663
 39.6791445319543072 29.2453384174851720 19.7015050378794356
 39.6791445319543072 29.2453384174851720 22.4733636201306979
 39.6791445319543072 29.2453384174851720 25.2452222023819672
 39.6791445319543072 29.2453384174851720 28.0170807846332330
 39.6791445319543072 29.2453384174851720 30.7889393668844988
 37.3961334141116666 30.9040430865069098 16.9296464556281663
 37.3961334141116666 30.9040430865069098 19.7015050378794356
 37.3961334141116666 30.9040430865069098 22.4733636201306979
 37.3961334141116666 30.9040430865069098 25.2452222023819672
 37.3961334141116666 30.9040430865069098 28.0170807846332330
 37.3961334141116666 30.9040430865069098 30.7889393668844988
 35.1131222962690259 32.5627477555286475 16.9296464556281663
 35.1131222962690259 32.5627477555286475 19.7015050378794356
 35.1131222962690259 32.5627477555286475 22.4733636201306979
 35.1131222962690259 32.5627477555286475 25.2452222023819672
 35.1131222962690259 32.5627477555286475 28.0170807846332330
 35.1131222962690259 32.5627477555286475 30.7889393668844988
 32.8301111784263924 34.2214524245503782 16.9296464556281663
 32.8301111784263924 34.2214524245503782 19.7015050378794356
 32.8301111784263924 34.2214524245503782 22.4733636201306979
 32.8301111784263924 34.2214524245503782 25.2452222023819672
 32.8301111784263924 34.2214524245503782 28.0170807846332330
 32.8301111784263924 34.2214524245503782 30.7889393668844988
 30.5471000605837517 35.8801570935721159 16.9296464556281663
 30.5471000605837517 35.8801570935721159 19.7015050378794356
 30.5471000605837517 35.8801570935721159 22.4733636201306979
 30.5471000605837517 35.8801570935721159 25.2452222023819672
 30.5471000605837517 35.8801570935721159 28.0170807846332330
 30.5471000605837517 35.8801570935721159 30.7889393668844988
 28.2640889427411111 37.5388617625938537 16.9296464556281663
 28.2640889427411111 37.5388617625938537 19.7015050378794356
 28.2640889427411111 37.5388617625938537 22.4733636201306979
 28.2640889427411111 37.5388617625938537 25.2452222023819672
 28.2640889427411111 37.5388617625938537 28.0170807846332330
 28.2640889427411111 37.5388617625938537 30.7889393668844988
 25.9810778248984704 35.8801570935721159 16.9296464556281663
 25.9810778248984704 35.8801570935721159 19.7015050378794356
 25.9810778248984704 35.8801570935721159 22.4733636201306979
 25.9810778248984704 35.8801570935721159 25.2452222023819672
 25.9810778248984704 35.8801570935721159 28.0170807846332330
 25.9810778248984704 35.8801570935721159 30.7889393668844988
 23.6980667070558333 34.2214524245503782 16.9296464556281663
 23.6980667070558333 34.2214524245503782 19.7015050378794356
 23.6980667070558333 34.2214524245503782 22.4733636201306979
 23.6980667070558333 34.2214524245503782 25.2452222023819672
 23.6980667070558333 34.2214524245503782 28.0170807846332330
 23.6980667070558333 34.2214524245503782 30.7889393668844988
 21.4150555892131926 32.5627477555286475 16.9296464556281663
 21.4150555892131926 32.5627477555286475 19.7015050378794356
 21.4150555892131926 32.5627477555286475 22.4733636201306979
 21.4150555892131926 32.5627477555286475 25.2452222023819672
 21.4150555892131926 32.5627477555286475 28.0170807846332330
 21.4150555892131926 32.5627477555286475 30.7889393668844988
 19.1320444713705555 30.9040430865069098 16.9296464556281663
 19.1320444713705555 30.9040430865069098 19.7015050378794356
 19.1320444713705555 30.9040430865069098 22.4733636201306979
 19.1320444713705555 30.9040430865069098 25.2452222023819672
 19.1320444713705555 30.9040430865069098 28.0170807846332330
 19.1320444713705555 30.9040430865069098 30.7889393668844988
 16.8490333535279149 29.2453384174851756 16.9296464556281663
 16.8490333535279149 29.2453384174851756 19.7015050378794356
 16.8490333535279149 29.2453384174851756 22.4733636201306979
 16.8490333535279149 29.2453384174851756 25.2452222023819672
 16.8490333535279149 29.2453384174851756 28.0170807846332330
 16.8490333535279149 29.2453384174851756 30.7889393668844988
 17.7210660038499128 26.5614978857098620 16.9296464556281663
 17.7210660038499128 26.5614978857098620 19.7015050378794356
 17.7210660038499128 26.5614978857098620 22.4733636201306979
 17.7210660038499128 26.5614978857098620 25.2452222023819672
 17.7210660038499128 26.5614978857098620 28.0170807846332330
 17.7210660038499128 26.5614978857098620 30.7889393668844988
 18.5930986541719072 23.8776573539345485 16.9296464556281663
 18.5930986541719072 23.8776573539345485 19.7015050378794356
 18.5930986541719072 23.8776573539345485 22.4733636201306979
 18.5930986541719072 23.8776573539345485 25.2452222023819672