Au 
 1.0000000000000000
    34.7247433785847193    0.0000000000000000    0.0000000000000000
     0.0000000000000000   34.7247433785847193    0.0000000000000000
     0.0000000000000000    0.0000000000000000   34.7247433785847193
 Au 
 147
Cartesian
 17.3623716892923596 17.3623716892923596 17.3623716892923596
 19.8164955857231462 17.3623716892923596 15.8456397086948080
 19.8164955857231462 17.3623716892923596 18.8791036698899113
 14.9082477928615731 17.3623716892923596 15.8456397086948080
 14.9082477928615731 17.3623716892923596 18.8791036698899113
 15.8456397086948080 19.8164955857231462 17.3623716892923596
 18.8791036698899113 19.8164955857231462 17.3623716892923596
 15.8456397086948080 14.9082477928615731 17.3623716892923596
 18.8791036698899113 14.9082477928615731 17.3623716892923596
 17.3623716892923596 15.8456397086948080 19.8164955857231462
 17.3623716892923596 18.8791036698899113 19.8164955857231462
 17.3623716892923596 15.8456397086948080 14.9082477928615731
 17.3623716892923596 18.8791036698899113 14.9082477928615731
 22.2706194821539327 17.3623716892923596 14.3289077280972545
 22.2706194821539327 17.3623716892923596 17.3623716892923596
 22.2706194821539327 17.3623716892923596 20.3958356504874629
 12.4541238964307865 17.3623716892923596 14.3289077280972545
 12.4541238964307865 17.3623716892923596 17.3623716892923596
 12.4541238964307865 17.3623716892923596 20.3958356504874629
 14.3289077280972545 22.2706194821539327 17.3623716892923596
 17.3623716892923596 22.2706194821539327 17.3623716892923596
 20.3958356504874629 22.2706194821539327 17.3623716892923596
 14.3289077280972545 12.4541238964307865 17.3623716892923596
 17.3623716892923596 12.4541238964307865 17.3623716892923596
 20.3958356504874629 12.4541238964307865 17.3623716892923596
 17.3623716892923596 14.3289077280972545 22.2706194821539327
 17.3623716892923596 17.3623716892923596 22.2706194821539327
 17.3623716892923596 20.3958356504874629 22.2706194821539327
 17.3623716892923596 14.3289077280972545 12.4541238964307865
 17.3623716892923596 17.3623716892923596 12.4541238964307865
 17.3623716892923596 20.3958356504874629 12.4541238964307865
 19.8164955857231462 15.8456397086948080 21.3332275663206978
 19.8164955857231462 18.8791036698899113 21.3332275663206978
 19.8164955857231462 15.8456397086948080 13.3915158122640214
 19.8164955857231462 18.8791036698899113 13.3915158122640214
 14.9082477928615731 15.8456397086948080 21.3332275663206978
 14.9082477928615731 18.8791036698899113 21.3332275663206978
 14.9082477928615731 15.8456397086948080 13.3915158122640214
 14.9082477928615731 18.8791036698899113 13.3915158122640214
 21.3332275663206978 19.8164955857231462 15.8456397086948080
 21.3332275663206978 19.8164955857231462 18.8791036698899113
 13.3915158122640214 19.8164955857231462 15.8456397086948080
 13.3915158122640214 19.8164955857231462 18.8791036698899113
 21.3332275663206978 14.9082477928615731 15.8456397086948080
 21.3332275663206978 14.9082477928615731 18.8791036698899113
 13.3915158122640214 14.9082477928615731 15.8456397086948080
 13.3915158122640214 14.9082477928615731 18.8791036698899113
 15.8456397086948080 21.3332275663206978 19.8164955857231462
 18.8791036698899113 21.3332275663206978 19.8164955857231462
 15.8456397086948080 13.3915158122640214 19.8164955857231462
 18.8791036698899113 13.3915158122640214 19.8164955857231462
 15.8456397086948080 21.3332275663206978 14.9082477928615731
 18.8791036698899113 21.3332275663206978 14.9082477928615731
 15.8456397086948080 13.3915158122640214 14.9082477928615731
 18.8791036698899113 13.3915158122640214 14.9082477928615731
 24.7247433785847193 17.3623716892923596 12.8121757474997011
 24.7247433785847193 17.3623716892923596 15.8456397086948080
 24.7247433785847193 17.3623716892923596 18.8791036698899113
 24.7247433785847193 17.3623716892923596 21.9125676310850181
 10.0000000000000000 17.3623716892923596 12.8121757474997011
 10.0000000000000000 17.3623716892923596 15.8456397086948080
 10.0000000000000000 17.3623716892923596 18.8791036698899113
 10.0000000000000000 17.3623716892923596 21.9125676310850181
 12.8121757474997011 24.7247433785847193 17.3623716892923596
 15.8456397086948080 24.7247433785847193 17.3623716892923596
 18.8791036698899113 24.7247433785847193 17.3623716892923596
 21.9125676310850181 24.7247433785847193 17.3623716892923596
 12.8121757474997011 10.0000000000000000 17.3623716892923596
 15.8456397086948080 10.0000000000000000 17.3623716892923596
 18.8791036698899113 10.0000000000000000 17.3623716892923596
 21.9125676310850181 10.0000000000000000 17.3623716892923596
 17.3623716892923596 12.8121757474997011 24.7247433785847193
 17.3623716892923596 15.8456397086948080 24.7247433785847193
 17.3623716892923596 18.8791036698899113 24.7247433785847193
 17.3623716892923596 21.9125676310850181 24.7247433785847193
 17.3623716892923596 12.8121757474997011 10.0000000000000000
 17.3623716892923596 15.8456397086948080 10.0000000000000000
 17.3623716892923596 18.8791036698899113 10.0000000000000000
 17.3623716892923596 21.9125676310850181 10.0000000000000000
 22.2706194821539327 15.8456397086948080 22.8499595469182495
 19.8164955857231462 14.3289077280972545 23.7873514627514844
 22.2706194821539327 18.8791036698899113 22.8499595469182495
 19.8164955857231462 17.3623716892923596 23.7873514627514844
 19.8164955857231462 20.3958356504874629 23.7873514627514844
 22.2706194821539327 15.8456397086948080 11.8747838316664680
 19.8164955857231462 14.3289077280972545 10.9373919158332349
 22.2706194821539327 18.8791036698899113 11.8747838316664680
 19.8164955857231462 17.3623716892923596 10.9373919158332349
 19.8164955857231462 20.3958356504874629 10.9373919158332349
 12.4541238964307865 15.8456397086948080 22.8499595469182495
 14.9082477928615731 14.3289077280972545 23.7873514627514844
 12.4541238964307865 18.8791036698899113 22.8499595469182495
 14.9082477928615731 17.3623716892923596 23.7873514627514844
 14.9082477928615731 20.3958356504874629 23.7873514627514844
 12.4541238964307865 15.8456397086948080 11.8747838316664680
 14.9082477928615731 14.3289077280972545 10.9373919158332349
 12.4541238964307865 18.8791036698899113 11.8747838316664680
 14.9082477928615731 17.3623716892923596 10.9373919158332349
 14.9082477928615731 20.3958356504874629 10.9373919158332349
 22.8499595469182495 22.2706194821539327 15.8456397086948080
 23.7873514627514844 19.8164955857231462 14.3289077280972545
 22.8499595469182495 22.2706194821539327 18.8791036698899113
 23.7873514627514844 19.8164955857231462 17.3623716892923596
 23.7873514627514844 19.8164955857231462 20.3958356504874629
 11.8747838316664680 22.2706194821539327 15.8456397086948080
 10.9373919158332349 19.8164955857231462 14.3289077280972545
 11.8747838316664680 22.2706194821539327 18.8791036698899113
 10.9373919158332349 19.8164955857231462 17.3623716892923596
 10.9373919158332349 19.8164955857231462 20.3958356504874629
 22.8499595469182495 12.4541238964307865 15.8456397086948080
 23.7873514627514844 14.9082477928615731 14.3289077280972545
 22.8499595469182495 12.4541238964307865 18.8791036698899113
 23.7873514627514844 14.9082477928615731 17.3623716892923596
 23.7873514627514844 14.9082477928615731 20.3958356504874629
 11.8747838316664680 12.4541238964307865 15.8456397086948080
 10.9373919158332349 14.9082477928615731 14.3289077280972545
 11.8747838316664680 12.4541238964307865 18.8791036698899113
 10.9373919158332349 14.9082477928615731 17.3623716892923596
 10.9373919158332349 14.9082477928615731 20.3958356504874629
 15.8456397086948080 22.8499595469182495 22.2706194821539327
 14.3289077280972545 23.7873514627514844 19.8164955857231462
 18.8791036698899113 22.8499595469182495 22.2706194821539327
 17.3623716892923596 23.7873514627514844 19.8164955857231462
 20.3958356504874629 23.7873514627514844 19.8164955857231462
 15.8456397086948080 11.8747838316664680 22.2706194821539327
 14.3289077280972545 10.9373919158332349 19.8164955857231462
 18.8791036698899113 11.8747838316664680 22.2706194821539327
 17.3623716892923596 10.9373919158332349 19.8164955857231462
 20.3958356504874629 10.9373919158332349 19.8164955857231462
 15.8456397086948080 22.8499595469182495 12.4541238964307865
 14.3289077280972545 23.7873514627514844 14.9082477928615731
 18.8791036698899113 22.8499595469182495 12.4541238964307865
 17.3623716892923596 23.7873514627514844 14.9082477928615731
 20.3958356504874629 23.7873514627514844 14.9082477928615731
 15.8456397086948080 11.8747838316664680 12.4541238964307865
 14.3289077280972545 10.9373919158332349 14.9082477928615731
 18.8791036698899113 11.8747838316664680 12.4541238964307865
 17.3623716892923596 10.9373919158332349 14.9082477928615731
 20.3958356504874629 10.9373919158332349 14.9082477928615731
 21.3332275663206978 13.3915158122640214 21.3332275663206978
 21.3332275663206978 21.3332275663206978 21.3332275663206978
 21.3332275663206978 13.3915158122640214 13.3915158122640214
 21.3332275663206978 21.3332275663206978 13.3915158122640214
 13.3915158122640214 13.3915158122640214 21.3332275663206978
 13.3915158122640214 21.3332275663206978 21.3332275663206978
 13.3915158122640214 13.3915158122640214 13.3915158122640214
 13.3915158122640214 21.3332275663206978 13.3915158122640214
