Au 
 1.0000000000000000
    36.3200000000000003    0.0000000000000000    0.0000000000000000
     0.0000000000000000   36.3200000000000003    0.0000000000000000
     0.0000000000000000    0.0000000000000000   36.3200000000000003
 Au 
  85
Cartesian
 12.0399999999999991 16.1200000000000010 18.1600000000000001
 12.0399999999999991 18.1600000000000001 16.1200000000000010
 10.0000000000000000 18.1600000000000001 18.1600000000000001
 12.0399999999999991 18.1600000000000001 20.1999999999999993
 12.0399999999999991 20.1999999999999993 18.1600000000000001
 16.1200000000000010 12.0399999999999991 18.1600000000000001
 14.0800000000000001 16.1200000000000010 16.1200000000000010
 16.1200000000000010 14.0800000000000001 16.1200000000000010
 16.1200000000000010 16.1200000000000010 14.0800000000000001
 14.0800000000000001 14.0800000000000001 18.1600000000000001
 14.0800000000000001 16.1200000000000010 20.1999999999999993
 16.1200000000000010 14.0800000000000001 20.1999999999999993
 16.1200000000000010 16.1200000000000010 18.1600000000000001
 16.1200000000000010 16.1200000000000010 22.2400000000000020
 16.1200000000000010 18.1600000000000001 12.0399999999999991
 14.0800000000000001 18.1600000000000001 14.0800000000000001
 14.0800000000000001 20.1999999999999993 16.1200000000000010
 16.1200000000000010 18.1600000000000001 16.1200000000000010
 16.1200000000000010 20.1999999999999993 14.0800000000000001
 14.0800000000000001 18.1600000000000001 18.1600000000000001
 14.0800000000000001 20.1999999999999993 20.1999999999999993
 16.1200000000000010 18.1600000000000001 20.1999999999999993
 16.1200000000000010 20.1999999999999993 18.1600000000000001
 14.0800000000000001 18.1600000000000001 22.2400000000000020
 16.1200000000000010 18.1600000000000001 24.2800000000000011
 16.1200000000000010 20.1999999999999993 22.2400000000000020
 16.1200000000000010 22.2400000000000020 16.1200000000000010
 14.0800000000000001 22.2400000000000020 18.1600000000000001
 16.1200000000000010 22.2400000000000020 20.1999999999999993
 16.1200000000000010 24.2800000000000011 18.1600000000000001
 18.1600000000000001 12.0399999999999991 16.1200000000000010
 18.1600000000000001 10.0000000000000000 18.1600000000000001
 18.1600000000000001 12.0399999999999991 20.1999999999999993
 20.1999999999999993 12.0399999999999991 18.1600000000000001
 18.1600000000000001 16.1200000000000010 12.0399999999999991
 18.1600000000000001 14.0800000000000001 14.0800000000000001
 18.1600000000000001 16.1200000000000010 16.1200000000000010
 20.1999999999999993 14.0800000000000001 16.1200000000000010
 20.1999999999999993 16.1200000000000010 14.0800000000000001
 18.1600000000000001 14.0800000000000001 18.1600000000000001
 18.1600000000000001 16.1200000000000010 20.1999999999999993
 20.1999999999999993 14.0800000000000001 20.1999999999999993
 20.1999999999999993 16.1200000000000010 18.1600000000000001
 18.1600000000000001 14.0800000000000001 22.2400000000000020
 18.1600000000000001 16.1200000000000010 24.2800000000000011
 20.1999999999999993 16.1200000000000010 22.2400000000000020
 18.1600000000000001 18.1600000000000001 10.0000000000000000
 18.1600000000000001 20.1999999999999993 12.0399999999999991
 20.1999999999999993 18.1600000000000001 12.0399999999999991
 18.1600000000000001 18.1600000000000001 14.0800000000000001
 18.1600000000000001 20.1999999999999993 16.1200000000000010
 20.1999999999999993 18.1600000000000001 16.1200000000000010
 20.1999999999999993 20.1999999999999993 14.0800000000000001
 18.1600000000000001 18.1600000000000001 18.1600000000000001
 18.1600000000000001 20.1999999999999993 20.1999999999999993
 20.1999999999999993 18.1600000000000001 20.1999999999999993
 20.1999999999999993 20.1999999999999993 18.1600000000000001
 18.1600000000000001 18.1600000000000001 22.2400000000000020
 18.1600000000000001 20.1999999999999993 24.2800000000000011
 20.1999999999999993 18.1600000000000001 24.2800000000000011
 20.1999999999999993 20.1999999999999993 22.2400000000000020
 18.1600000000000001 18.1600000000000001 26.3200000000000003
 18.1600000000000001 22.2400000000000020 14.0800000000000001
 18.1600000000000001 24.2800000000000011 16.1200000000000010
 20.1999999999999993 22.2400000000000020 16.1200000000000010
 18.1600000000000001 22.2400000000000020 18.1600000000000001
 18.1600000000000001 24.2800000000000011 20.1999999999999993
 20.1999999999999993 22.2400000000000020 20.1999999999999993
 20.1999999999999993 24.2800000000000011 18.1600000000000001
 18.1600000000000001 22.2400000000000020 22.2400000000000020
 18.1600000000000001 26.3200000000000003 18.1600000000000001
 22.2400000000000020 16.1200000000000010 16.1200000000000010
 22.2400000000000020 14.0800000000000001 18.1600000000000001
 22.2400000000000020 16.1200000000000010 20.1999999999999993
 24.2800000000000011 16.1200000000000010 18.1600000000000001
 22.2400000000000020 18.1600000000000001 14.0800000000000001
 22.2400000000000020 20.1999999999999993 16.1200000000000010
 24.2800000000000011 18.1600000000000001 16.1200000000000010
 22.2400000000000020 18.1600000000000001 18.1600000000000001
 22.2400000000000020 20.1999999999999993 20.1999999999999993
 24.2800000000000011 18.1600000000000001 20.1999999999999993
 24.2800000000000011 20.1999999999999993 18.1600000000000001
 22.2400000000000020 18.1600000000000001 22.2400000000000020
 22.2400000000000020 22.2400000000000020 18.1600000000000001
 26.3200000000000003 18.1600000000000001 18.1600000000000001
