Pt 
 1.0000000000000000
    43.5788374362957853    0.0000000000000000    0.0000000000000000
     0.0000000000000000   43.5788374362957853    0.0000000000000000
     0.0000000000000000    0.0000000000000000   43.5788374362957853
 Pt 
 561
Cartesian
 21.7894187181478927 21.7894187181478927 21.7894187181478927
 24.1473024617774712 21.7894187181478927 20.3321664230639705
 24.1473024617774712 21.7894187181478927 23.2466710132318148
 19.4315349745183141 21.7894187181478927 20.3321664230639705
 19.4315349745183141 21.7894187181478927 23.2466710132318148
 20.3321664230639705 24.1473024617774712 21.7894187181478927
 23.2466710132318148 24.1473024617774712 21.7894187181478927
 20.3321664230639705 19.4315349745183141 21.7894187181478927
 23.2466710132318148 19.4315349745183141 21.7894187181478927
 21.7894187181478927 20.3321664230639705 24.1473024617774712
 21.7894187181478927 23.2466710132318148 24.1473024617774712
 21.7894187181478927 20.3321664230639705 19.4315349745183141
 21.7894187181478927 23.2466710132318148 19.4315349745183141
 26.5051862054070497 21.7894187181478927 18.8749141279800483
 26.5051862054070497 21.7894187181478927 21.7894187181478927
 26.5051862054070497 21.7894187181478927 24.7039233083157370
 17.0736512308887356 21.7894187181478927 18.8749141279800483
 17.0736512308887356 21.7894187181478927 21.7894187181478927
 17.0736512308887356 21.7894187181478927 24.7039233083157370
 18.8749141279800483 26.5051862054070497 21.7894187181478927
 21.7894187181478927 26.5051862054070497 21.7894187181478927
 24.7039233083157370 26.5051862054070497 21.7894187181478927
 18.8749141279800483 17.0736512308887356 21.7894187181478927
 21.7894187181478927 17.0736512308887356 21.7894187181478927
 24.7039233083157370 17.0736512308887356 21.7894187181478927
 21.7894187181478927 18.8749141279800483 26.5051862054070497
 21.7894187181478927 21.7894187181478927 26.5051862054070497
 21.7894187181478927 24.7039233083157370 26.5051862054070497
 21.7894187181478927 18.8749141279800483 17.0736512308887356
 21.7894187181478927 21.7894187181478927 17.0736512308887356
 21.7894187181478927 24.7039233083157370 17.0736512308887356
 24.1473024617774712 20.3321664230639705 25.6045547568613934
 24.1473024617774712 23.2466710132318148 25.6045547568613934
 24.1473024617774712 20.3321664230639705 17.9742826794343920
 24.1473024617774712 23.2466710132318148 17.9742826794343920
 19.4315349745183141 20.3321664230639705 25.6045547568613934
 19.4315349745183141 23.2466710132318148 25.6045547568613934
 19.4315349745183141 20.3321664230639705 17.9742826794343920
 19.4315349745183141 23.2466710132318148 17.9742826794343920
 25.6045547568613934 24.1473024617774712 20.3321664230639705
 25.6045547568613934 24.1473024617774712 23.2466710132318148
 17.9742826794343920 24.1473024617774712 20.3321664230639705
 17.9742826794343920 24.1473024617774712 23.2466710132318148
 25.6045547568613934 19.4315349745183141 20.3321664230639705
 25.6045547568613934 19.4315349745183141 23.2466710132318148
 17.9742826794343920 19.4315349745183141 20.3321664230639705
 17.9742826794343920 19.4315349745183141 23.2466710132318148
 20.3321664230639705 25.6045547568613934 24.1473024617774712
 23.2466710132318148 25.6045547568613934 24.1473024617774712
 20.3321664230639705 17.9742826794343920 24.1473024617774712
 23.2466710132318148 17.9742826794343920 24.1473024617774712
 20.3321664230639705 25.6045547568613934 19.4315349745183141
 23.2466710132318148 25.6045547568613934 19.4315349745183141
 20.3321664230639705 17.9742826794343920 19.4315349745183141
 23.2466710132318148 17.9742826794343920 19.4315349745183141
 28.8630699490366283 21.7894187181478927 17.4176618328961226
 28.8630699490366283 21.7894187181478927 20.3321664230639705
 28.8630699490366283 21.7894187181478927 23.2466710132318148
 28.8630699490366283 21.7894187181478927 26.1611756033996627
 14.7157674872591571 21.7894187181478927 17.4176618328961226
 14.7157674872591571 21.7894187181478927 20.3321664230639705
 14.7157674872591571 21.7894187181478927 23.2466710132318148
 14.7157674872591571 21.7894187181478927 26.1611756033996627
 17.4176618328961226 28.8630699490366283 21.7894187181478927
 20.3321664230639705 28.8630699490366283 21.7894187181478927
 23.2466710132318148 28.8630699490366283 21.7894187181478927
 26.1611756033996627 28.8630699490366283 21.7894187181478927
 17.4176618328961226 14.7157674872591571 21.7894187181478927
 20.3321664230639705 14.7157674872591571 21.7894187181478927
 23.2466710132318148 14.7157674872591571 21.7894187181478927
 26.1611756033996627 14.7157674872591571 21.7894187181478927
 21.7894187181478927 17.4176618328961226 28.8630699490366283
 21.7894187181478927 20.3321664230639705 28.8630699490366283
 21.7894187181478927 23.2466710132318148 28.8630699490366283
 21.7894187181478927 26.1611756033996627 28.8630699490366283
 21.7894187181478927 17.4176618328961226 14.7157674872591571
 21.7894187181478927 20.3321664230639705 14.7157674872591571
 21.7894187181478927 23.2466710132318148 14.7157674872591571
 21.7894187181478927 26.1611756033996627 14.7157674872591571
 26.5051862054070497 20.3321664230639705 27.0618070519453155
 24.1473024617774712 18.8749141279800483 27.9624385004909755
 26.5051862054070497 23.2466710132318148 27.0618070519453155
 24.1473024617774712 21.7894187181478927 27.9624385004909755
 24.1473024617774712 24.7039233083157370 27.9624385004909755
 26.5051862054070497 20.3321664230639705 16.5170303843504698
 24.1473024617774712 18.8749141279800483 15.6163989358048116
 26.5051862054070497 23.2466710132318148 16.5170303843504698
 24.1473024617774712 21.7894187181478927 15.6163989358048116
 24.1473024617774712 24.7039233083157370 15.6163989358048116
 17.0736512308887356 20.3321664230639705 27.0618070519453155
 19.4315349745183141 18.8749141279800483 27.9624385004909755
 17.0736512308887356 23.2466710132318148 27.0618070519453155
 19.4315349745183141 21.7894187181478927 27.9624385004909755
 19.4315349745183141 24.7039233083157370 27.9624385004909755
 17.0736512308887356 20.3321664230639705 16.5170303843504698
 19.4315349745183141 18.8749141279800483 15.6163989358048116
 17.0736512308887356 23.2466710132318148 16.5170303843504698
 19.4315349745183141 21.7894187181478927 15.6163989358048116
 19.4315349745183141 24.7039233083157370 15.6163989358048116
 27.0618070519453155 26.5051862054070497 20.3321664230639705
 27.9624385004909755 24.1473024617774712 18.8749141279800483
 27.0618070519453155 26.5051862054070497 23.2466710132318148
 27.9624385004909755 24.1473024617774712 21.7894187181478927
 27.9624385004909755 24.1473024617774712 24.7039233083157370
 16.5170303843504698 26.5051862054070497 20.3321664230639705
 15.6163989358048116 24.1473024617774712 18.8749141279800483
 16.5170303843504698 26.5051862054070497 23.2466710132318148
 15.6163989358048116 24.1473024617774712 21.7894187181478927
 15.6163989358048116 24.1473024617774712 24.7039233083157370
 27.0618070519453155 17.0736512308887356 20.3321664230639705
 27.9624385004909755 19.4315349745183141 18.8749141279800483
 27.0618070519453155 17.0736512308887356 23.2466710132318148
 27.9624385004909755 19.4315349745183141 21.7894187181478927
 27.9624385004909755 19.4315349745183141 24.7039233083157370
 16.5170303843504698 17.0736512308887356 20.3321664230639705
 15.6163989358048116 19.4315349745183141 18.8749141279800483
 16.5170303843504698 17.0736512308887356 23.2466710132318148
 15.6163989358048116 19.4315349745183141 21.7894187181478927
 15.6163989358048116 19.4315349745183141 24.7039233083157370
 20.3321664230639705 27.0618070519453155 26.5051862054070497
 18.8749141279800483 27.9624385004909755 24.1473024617774712
 23.2466710132318148 27.0618070519453155 26.5051862054070497
 21.7894187181478927 27.9624385004909755 24.1473024617774712
 24.7039233083157370 27.9624385004909755 24.1473024617774712
 20.3321664230639705 16.5170303843504698 26.5051862054070497
 18.8749141279800483 15.6163989358048116 24.1473024617774712
 23.2466710132318148 16.5170303843504698 26.5051862054070497
 21.7894187181478927 15.6163989358048116 24.1473024617774712
 24.7039233083157370 15.6163989358048116 24.1473024617774712
 20.3321664230639705 27.0618070519453155 17.0736512308887356
 18.8749141279800483 27.9624385004909755 19.4315349745183141
 23.2466710132318148 27.0618070519453155 17.0736512308887356
 21.7894187181478927 27.9624385004909755 19.4315349745183141
 24.7039233083157370 27.9624385004909755 19.4315349745183141
 20.3321664230639705 16.5170303843504698 17.0736512308887356
 18.8749141279800483 15.6163989358048116 19.4315349745183141
 23.2466710132318148 16.5170303843504698 17.0736512308887356
 21.7894187181478927 15.6163989358048116 19.4315349745183141
 24.7039233083157370 15.6163989358048116 19.4315349745183141
 25.6045547568613934 17.9742826794343920 25.6045547568613934
 25.6045547568613934 25.6045547568613934 25.6045547568613934
 25.6045547568613934 17.9742826794343920 17.9742826794343920
 25.6045547568613934 25.6045547568613934 17.9742826794343920
 17.9742826794343920 17.9742826794343920 25.6045547568613934
 17.9742826794343920 25.6045547568613934 25.6045547568613934
 17.9742826794343920 17.9742826794343920 17.9742826794343920
 17.9742826794343920 25.6045547568613934 17.9742826794343920
 31.2209536926662068 21.7894187181478927 15.9604095378122004
 31.2209536926662068 21.7894187181478927 18.8749141279800483
 31.2209536926662068 21.7894187181478927 21.7894187181478927
 31.2209536926662068 21.7894187181478927 24.7039233083157370
 31.2209536926662068 21.7894187181478927 27.6184278984835849
 12.3578837436295768 21.7894187181478927 15.9604095378122004
 12.3578837436295768 21.7894187181478927 18.8749141279800483
 12.3578837436295768 21.7894187181478927 21.7894187181478927
 12.3578837436295768 21.7894187181478927 24.7039233083157370
 12.3578837436295768 21.7894187181478927 27.6184278984835849
 15.9604095378122004 31.2209536926662068 21.7894187181478927
 18.8749141279800483 31.2209536926662068 21.7894187181478927
 21.7894187181478927 31.2209536926662068 21.7894187181478927
 24.7039233083157370 31.2209536926662068 21.7894187181478927
 27.6184278984835849 31.2209536926662068 21.7894187181478927
 15.9604095378122004 12.3578837436295768 21.7894187181478927
 18.8749141279800483 12.3578837436295768 21.7894187181478927
 21.7894187181478927 12.3578837436295768 21.7894187181478927
 24.7039233083157370 12.3578837436295768 21.7894187181478927
 27.6184278984835849 12.3578837436295768 21.7894187181478927
 21.7894187181478927 15.9604095378122004 31.2209536926662068
 21.7894187181478927 18.8749141279800483 31.2209536926662068
 21.7894187181478927 21.7894187181478927 31.2209536926662068
 21.7894187181478927 24.7039233083157370 31.2209536926662068
 21.7894187181478927 27.6184278984835849 31.2209536926662068
 21.7894187181478927 15.9604095378122004 12.3578837436295768
 21.7894187181478927 18.8749141279800483 12.3578837436295768
 21.7894187181478927 21.7894187181478927 12.3578837436295768
 21.7894187181478927 24.7039233083157370 12.3578837436295768
 21.7894187181478927 27.6184278984835849 12.3578837436295768
 28.8630699490366283 20.3321664230639705 28.5190593470292413
 26.5051862054070497 18.8749141279800483 29.4196907955748976
 24.1473024617774712 17.4176618328961226 30.3203222441205540
 28.8630699490366283 23.2466710132318148 28.5190593470292413
 26.5051862054070497 21.7894187181478927 29.4196907955748976
 24.1473024617774712 20.3321664230639705 30.3203222441205540
 26.5051862054070497 24.7039233083157370 29.4196907955748976
 24.1473024617774712 23.2466710132318148 30.3203222441205540
 24.1473024617774712 26.1611756033996627 30.3203222441205540
 28.8630699490366283 20.3321664230639705 15.0597780892665440
 26.5051862054070497 18.8749141279800483 14.1591466407208877
 24.1473024617774712 17.4176618328961226 13.2585151921752331
 28.8630699490366283 23.2466710132318148 15.0597780892665440
 26.5051862054070497 21.7894187181478927 14.1591466407208877
 24.1473024617774712 20.3321664230639705 13.2585151921752331
 26.5051862054070497 24.7039233083157370 14.1591466407208877
 24.1473024617774712 23.2466710132318148 13.2585151921752331
 24.1473024617774712 26.1611756033996627 13.2585151921752331
 14.7157674872591571 20.3321664230639705 28.5190593470292413
 17.0736512308887356 18.8749141279800483 29.4196907955748976
 19.4315349745183141 17.4176618328961226 30.3203222441205540
 14.7157674872591571 23.2466710132318148 28.5190593470292413
 17.0736512308887356 21.7894187181478927 29.4196907955748976
 19.4315349745183141 20.3321664230639705 30.3203222441205540
 17.0736512308887356 24.7039233083157370 29.4196907955748976
 19.4315349745183141 23.2466710132318148 30.3203222441205540
 19.4315349745183141 26.1611756033996627 30.3203222441205540
 14.7157674872591571 20.3321664230639705 15.0597780892665440
 17.0736512308887356 18.8749141279800483 14.1591466407208877
 19.4315349745183141 17.4176618328961226 13.2585151921752331
 14.7157674872591571 23.2466710132318148 15.0597780892665440
 17.0736512308887356 21.7894187181478927 14.1591466407208877
 19.4315349745183141 20.3321664230639705 13.2585151921752331
 17.0736512308887356 24.7039233083157370 14.1591466407208877
 19.4315349745183141 23.2466710132318148 13.2585151921752331
 19.4315349745183141 26.1611756033996627 13.2585151921752331
 28.5190593470292413 28.8630699490366283 20.3321664230639705
 29.4196907955748976 26.5051862054070497 18.8749141279800483
 30.3203222441205540 24.1473024617774712 17.4176618328961226
 28.5190593470292413 28.8630699490366283 23.2466710132318148
 29.4196907955748976 26.5051862054070497 21.7894187181478927
 30.3203222441205540 24.1473024617774712 20.3321664230639705
 29.4196907955748976 26.5051862054070497 24.7039233083157370
 30.3203222441205540 24.1473024617774712 23.2466710132318148
 30.3203222441205540 24.1473024617774712 26.1611756033996627
 15.0597780892665440 28.8630699490366283 20.3321664230639705
 14.1591466407208877 26.5051862054070497 18.8749141279800483
 13.2585151921752331 24.1473024617774712 17.4176618328961226
 15.0597780892665440 28.8630699490366283 23.2466710132318148
 14.1591466407208877 26.5051862054070497 21.7894187181478927
 13.2585151921752331 24.1473024617774712 20.3321664230639705
 14.1591466407208877 26.5051862054070497 24.7039233083157370
 13.2585151921752331 24.1473024617774712 23.2466710132318148
 13.2585151921752331 24.1473024617774712 26.1611756033996627
 28.5190593470292413 14.7157674872591571 20.3321664230639705
 29.4196907955748976 17.0736512308887356 18.8749141279800483
 30.3203222441205540 19.4315349745183141 17.4176618328961226
 28.5190593470292413 14.7157674872591571 23.2466710132318148
 29.4196907955748976 17.0736512308887356 21.7894187181478927
 30.3203222441205540 19.4315349745183141 20.3321664230639705
 29.4196907955748976 17.0736512308887356 24.7039233083157370
 30.3203222441205540 19.4315349745183141 23.2466710132318148
 30.3203222441205540 19.4315349745183141 26.1611756033996627
 15.0597780892665440 14.7157674872591571 20.3321664230639705
 14.1591466407208877 17.0736512308887356 18.8749141279800483
 13.2585151921752331 19.4315349745183141 17.4176618328961226
 15.0597780892665440 14.7157674872591571 23.2466710132318148
 14.1591466407208877 17.0736512308887356 21.7894187181478927
 13.2585151921752331 19.4315349745183141 20.3321664230639705
 14.1591466407208877 17.0736512308887356 24.7039233083157370
 13.2585151921752331 19.4315349745183141 23.2466710132318148
 13.2585151921752331 19.4315349745183141 26.1611756033996627
 20.3321664230639705 28.5190593470292413 28.8630699490366283
 18.8749141279800483 29.4196907955748976 26.5051862054070497
 17.4176618328961226 30.3203222441205540 24.1473024617774712
 23.2466710132318148 28.5190593470292413 28.8630699490366283
 21.7894187181478927 29.4196907955748976 26.5051862054070497
 20.3321664230639705 30.3203222441205540 24.1473024617774712
 24.7039233083157370 29.4196907955748976 26.5051862054070497
 23.2466710132318148 30.3203222441205540 24.1473024617774712
 26.1611756033996627 30.3203222441205540 24.1473024617774712
 20.3321664230639705 15.0597780892665440 28.8630699490366283
 18.8749141279800483 14.1591466407208877 26.5051862054070497
 17.4176618328961226 13.2585151921752331 24.1473024617774712
 23.2466710132318148 15.0597780892665440 28.8630699490366283
 21.7894187181478927 14.1591466407208877 26.5051862054070497
 20.3321664230639705 13.2585151921752331 24.1473024617774712
 24.7039233083157370 14.1591466407208877 26.5051862054070497
 23.2466710132318148 13.2585151921752331 24.1473024617774712
 26.1611756033996627 13.2585151921752331 24.1473024617774712
 20.3321664230639705 28.5190593470292413 14.7157674872591571
 18.8749141279800483 29.4196907955748976 17.0736512308887356
 17.4176618328961226 30.3203222441205540 19.4315349745183141
 23.2466710132318148 28.5190593470292413 14.7157674872591571
 21.7894187181478927 29.4196907955748976 17.0736512308887356
 20.3321664230639705 30.3203222441205540 19.4315349745183141
 24.7039233083157370 29.4196907955748976 17.0736512308887356
 23.2466710132318148 30.3203222441205540 19.4315349745183141
 26.1611756033996627 30.3203222441205540 19.4315349745183141
 20.3321664230639705 15.0597780892665440 14.7157674872591571
 18.8749141279800483 14.1591466407208877 17.0736512308887356
 17.4176618328961226 13.2585151921752331 19.4315349745183141
 23.2466710132318148 15.0597780892665440 14.7157674872591571
 21.7894187181478927 14.1591466407208877 17.0736512308887356
 20.3321664230639705 13.2585151921752331 19.4315349745183141
 24.7039233083157370 14.1591466407208877 17.0736512308887356
 23.2466710132318148 13.2585151921752331 19.4315349745183141
 26.1611756033996627 13.2585151921752331 19.4315349745183141
 27.9624385004909755 17.9742826794343920 27.0618070519453155
 27.9624385004909755 25.6045547568613934 27.0618070519453155
 27.0618070519453155 15.6163989358048116 25.6045547568613934
 27.0618070519453155 27.9624385004909755 25.6045547568613934
 25.6045547568613934 16.5170303843504698 27.9624385004909755
 25.6045547568613934 27.0618070519453155 27.9624385004909755
 27.9624385004909755 17.9742826794343920 16.5170303843504698
 27.9624385004909755 25.6045547568613934 16.5170303843504698
 27.0618070519453155 15.6163989358048116 17.9742826794343920
 27.0618070519453155 27.9624385004909755 17.9742826794343920
 25.6045547568613934 16.5170303843504698 15.6163989358048116
 25.6045547568613934 27.0618070519453155 15.6163989358048116
 15.6163989358048116 17.9742826794343920 27.0618070519453155
 15.6163989358048116 25.6045547568613934 27.0618070519453155
 16.5170303843504698 15.6163989358048116 25.6045547568613934
 16.5170303843504698 27.9624385004909755 25.6045547568613934
 17.9742826794343920 16.5170303843504698 27.9624385004909755
 17.9742826794343920 27.0618070519453155 27.9624385004909755
 15.6163989358048116 17.9742826794343920 16.5170303843504698
 15.6163989358048116 25.6045547568613934 16.5170303843504698
 16.5170303843504698 15.6163989358048116 17.9742826794343920
 16.5170303843504698 27.9624385004909755 17.9742826794343920
 17.9742826794343920 16.5170303843504698 15.6163989358048116
 17.9742826794343920 27.0618070519453155 15.6163989358048116
 33.5788374362957853 21.7894187181478927 14.5031572427282782
 33.5788374362957853 21.7894187181478927 17.4176618328961226
 33.5788374362957853 21.7894187181478927 20.3321664230639705
 33.5788374362957853 21.7894187181478927 23.2466710132318148
 33.5788374362957853 21.7894187181478927 26.1611756033996627
 33.5788374362957853 21.7894187181478927 29.0756801935675071
  9.9999999999999982 21.7894187181478927 14.5031572427282782
  9.9999999999999982 21.7894187181478927 17.4176618328961226
  9.9999999999999982 21.7894187181478927 20.3321664230639705
  9.9999999999999982 21.7894187181478927 23.2466710132318148
  9.9999999999999982 21.7894187181478927 26.1611756033996627
  9.9999999999999982 21.7894187181478927 29.0756801935675071
 14.5031572427282782 33.5788374362957853 21.7894187181478927
 17.4176618328961226 33.5788374362957853 21.7894187181478927
 20.3321664230639705 33.5788374362957853 21.7894187181478927
 23.2466710132318148 33.5788374362957853 21.7894187181478927
 26.1611756033996627 33.5788374362957853 21.7894187181478927
 29.0756801935675071 33.5788374362957853 21.7894187181478927
 14.5031572427282782  9.9999999999999982 21.7894187181478927
 17.4176618328961226  9.9999999999999982 21.7894187181478927
 20.3321664230639705  9.9999999999999982 21.7894187181478927
 23.2466710132318148  9.9999999999999982 21.7894187181478927
 26.1611756033996627  9.9999999999999982 21.7894187181478927
 29.0756801935675071  9.9999999999999982 21.7894187181478927
 21.7894187181478927 14.5031572427282782 33.5788374362957853
 21.7894187181478927 17.4176618328961226 33.5788374362957853
 21.7894187181478927 20.3321664230639705 33.5788374362957853
 21.7894187181478927 23.2466710132318148 33.5788374362957853
 21.7894187181478927 26.1611756033996627 33.5788374362957853
 21.7894187181478927 29.0756801935675071 33.5788374362957853
 21.7894187181478927 14.5031572427282782  9.9999999999999982
 21.7894187181478927 17.4176618328961226  9.9999999999999982
 21.7894187181478927 20.3321664230639705  9.9999999999999982
 21.7894187181478927 23.2466710132318148  9.9999999999999982
 21.7894187181478927 26.1611756033996627  9.9999999999999982
 21.7894187181478927 29.0756801935675071  9.9999999999999982
 31.2209536926662068 20.3321664230639705 29.9763116421131635
 28.8630699490366283 18.8749141279800483 30.8769430906588198
 26.5051862054070497 17.4176618328961226 31.7775745392044762
 24.1473024617774712 15.9604095378122004 32.6782059877501325
 31.2209536926662068 23.2466710132318148 29.9763116421131635
 28.8630699490366283 21.7894187181478927 30.8769430906588198
 26.5051862054070497 20.3321664230639705 31.7775745392044762
 24.1473024617774712 18.8749141279800483 32.6782059877501325
 28.8630699490366283 24.7039233083157370 30.8769430906588198
 26.5051862054070497 23.2466710132318148 31.7775745392044762
 24.1473024617774712 21.7894187181478927 32.6782059877501325
 26.5051862054070497 26.1611756033996627 31.7775745392044762
 24.1473024617774712 24.7039233083157370 32.6782059877501325
 24.1473024617774712 27.6184278984835849 32.6782059877501325
 31.2209536926662068 20.3321664230639705 13.6025257941826219
 28.8630699490366283 18.8749141279800483 12.7018943456369655
 26.5051862054070497 17.4176618328961226 11.8012628970913092
 24.1473024617774712 15.9604095378122004 10.9006314485456546
 31.2209536926662068 23.2466710132318148 13.6025257941826219
 28.8630699490366283 21.7894187181478927 12.7018943456369655
 26.5051862054070497 20.3321664230639705 11.8012628970913092
 24.1473024617774712 18.8749141279800483 10.9006314485456546
 28.8630699490366283 24.7039233083157370 12.7018943456369655
 26.5051862054070497 23.2466710132318148 11.8012628970913092
 24.1473024617774712 21.7894187181478927 10.9006314485456546
 26.5051862054070497 26.1611756033996627 11.8012628970913092
 24.1473024617774712 24.7039233083157370 10.9006314485456546
 24.1473024617774712 27.6184278984835849 10.9006314485456546
 12.3578837436295768 20.3321664230639705 29.9763116421131635
 14.7157674872591571 18.8749141279800483 30.8769430906588198
 17.0736512308887356 17.4176618328961226 31.7775745392044762
 19.4315349745183141 15.9604095378122004 32.6782059877501325
 12.3578837436295768 23.2466710132318148 29.9763116421131635
 14.7157674872591571 21.7894187181478927 30.8769430906588198
 17.0736512308887356 20.3321664230639705 31.7775745392044762
 19.4315349745183141 18.8749141279800483 32.6782059877501325
 14.7157674872591571 24.7039233083157370 30.8769430906588198
 17.0736512308887356 23.2466710132318148 31.7775745392044762
 19.4315349745183141 21.7894187181478927 32.6782059877501325
 17.0736512308887356 26.1611756033996627 31.7775745392044762
 19.4315349745183141 24.7039233083157370 32.6782059877501325
 19.4315349745183141 27.6184278984835849 32.6782059877501325
 12.3578837436295768 20.3321664230639705 13.6025257941826219
 14.7157674872591571 18.8749141279800483 12.7018943456369655
 17.0736512308887356 17.4176618328961226 11.8012628970913092
 19.4315349745183141 15.9604095378122004 10.9006314485456546
 12.3578837436295768 23.2466710132318148 13.6025257941826219
 14.7157674872591571 21.7894187181478927 12.7018943456369655
 17.0736512308887356 20.3321664230639705 11.8012628970913092
 19.4315349745183141 18.8749141279800483 10.9006314485456546
 14.7157674872591571 24.7039233083157370 12.7018943456369655
 17.0736512308887356 23.2466710132318148 11.8012628970913092
 19.4315349745183141 21.7894187181478927 10.9006314485456546
 17.0736512308887356 26.1611756033996627 11.8012628970913092
 19.4315349745183141 24.7039233083157370 10.9006314485456546
 19.4315349745183141 27.6184278984835849 10.9006314485456546
 29.9763116421131635 31.2209536926662068 20.3321664230639705
 30.8769430906588198 28.8630699490366283 18.8749141279800483
 31.7775745392044762 26.5051862054070497 17.4176618328961226
 32.6782059877501325 24.1473024617774712 15.9604095378122004
 29.9763116421131635 31.2209536926662068 23.2466710132318148
 30.8769430906588198 28.8630699490366283 21.7894187181478927
 31.7775745392044762 26.5051862054070497 20.3321664230639705
 32.6782059877501325 24.1473024617774712 18.8749141279800483
 30.8769430906588198 28.8630699490366283 24.7039233083157370
 31.7775745392044762 26.5051862054070497 23.2466710132318148
 32.6782059877501325 24.1473024617774712 21.7894187181478927
 31.7775745392044762 26.5051862054070497 26.1611756033996627
 32.6782059877501325 24.1473024617774712 24.7039233083157370
 32.6782059877501325 24.1473024617774712 27.6184278984835849
 13.6025257941826219 31.2209536926662068 20.3321664230639705
 12.7018943456369655 28.8630699490366283 18.8749141279800483
 11.8012628970913092 26.5051862054070497 17.4176618328961226
 10.9006314485456546 24.1473024617774712 15.9604095378122004
 13.6025257941826219 31.2209536926662068 23.2466710132318148
 12.7018943456369655 28.8630699490366283 21.7894187181478927
 11.8012628970913092 26.5051862054070497 20.3321664230639705
 10.9006314485456546 24.1473024617774712 18.8749141279800483
 12.7018943456369655 28.8630699490366283 24.7039233083157370
 11.8012628970913092 26.5051862054070497 23.2466710132318148
 10.9006314485456546 24.1473024617774712 21.7894187181478927
 11.8012628970913092 26.5051862054070497 26.1611756033996627
 10.9006314485456546 24.1473024617774712 24.7039233083157370
 10.9006314485456546 24.1473024617774712 27.6184278984835849
 29.9763116421131635 12.3578837436295768 20.3321664230639705
 30.8769430906588198 14.7157674872591571 18.8749141279800483
 31.7775745392044762 17.0736512308887356 17.4176618328961226
 32.6782059877501325 19.4315349745183141 15.9604095378122004
 29.9763116421131635 12.3578837436295768 23.2466710132318148
 30.8769430906588198 14.7157674872591571 21.7894187181478927
 31.7775745392044762 17.0736512308887356 20.3321664230639705
 32.6782059877501325 19.4315349745183141 18.8749141279800483
 30.8769430906588198 14.7157674872591571 24.7039233083157370
 31.7775745392044762 17.0736512308887356 23.2466710132318148
 32.6782059877501325 19.4315349745183141 21.7894187181478927
 31.7775745392044762 17.0736512308887356 26.1611756033996627
 32.6782059877501325 19.4315349745183141 24.7039233083157370
 32.6782059877501325 19.4315349745183141 27.6184278984835849
 13.6025257941826219 12.3578837436295768 20.3321664230639705
 12.7018943456369655 14.7157674872591571 18.8749141279800483
 11.8012628970913092 17.0736512308887356 17.4176618328961226
 10.9006314485456546 19.4315349745183141 15.9604095378122004
 13.6025257941826219 12.3578837436295768 23.2466710132318148
 12.7018943456369655 14.7157674872591571 21.7894187181478927
 11.8012628970913092 17.0736512308887356 20.3321664230639705
 10.9006314485456546 19.4315349745183141 18.8749141279800483
 12.7018943456369655 14.7157674872591571 24.7039233083157370
 11.8012628970913092 17.0736512308887356 23.2466710132318148
 10.9006314485456546 19.4315349745183141 21.7894187181478927
 11.8012628970913092 17.0736512308887356 26.1611756033996627
 10.9006314485456546 19.4315349745183141 24.7039233083157370
 10.9006314485456546 19.4315349745183141 27.6184278984835849
 20.3321664230639705 29.9763116421131635 31.2209536926662068
 18.8749141279800483 30.8769430906588198 28.8630699490366283
 17.4176618328961226 31.7775745392044762 26.5051862054070497
 15.9604095378122004 32.6782059877501325 24.1473024617774712
 23.2466710132318148 29.9763116421131635 31.2209536926662068
 21.7894187181478927 30.8769430906588198 28.8630699490366283
 20.3321664230639705 31.7775745392044762 26.5051862054070497
 18.8749141279800483 32.6782059877501325 24.1473024617774712
 24.7039233083157370 30.8769430906588198 28.8630699490366283
 23.2466710132318148 31.7775745392044762 26.5051862054070497
 21.7894187181478927 32.6782059877501325 24.1473024617774712
 26.1611756033996627 31.7775745392044762 26.5051862054070497
 24.7039233083157370 32.6782059877501325 24.1473024617774712
 27.6184278984835849 32.6782059877501325 24.1473024617774712
 20.3321664230639705 13.6025257941826219 31.2209536926662068
 18.8749141279800483 12.7018943456369655 28.8630699490366283
 17.4176618328961226 11.8012628970913092 26.5051862054070497
 15.9604095378122004 10.9006314485456546 24.1473024617774712
 23.2466710132318148 13.6025257941826219 31.2209536926662068
 21.7894187181478927 12.7018943456369655 28.8630699490366283
 20.3321664230639705 11.8012628970913092 26.5051862054070497
 18.8749141279800483 10.9006314485456546 24.1473024617774712
 24.7039233083157370 12.7018943456369655 28.8630699490366283
 23.2466710132318148 11.8012628970913092 26.5051862054070497
 21.7894187181478927 10.9006314485456546 24.1473024617774712
 26.1611756033996627 11.8012628970913092 26.5051862054070497
 24.7039233083157370 10.9006314485456546 24.1473024617774712
 27.6184278984835849 10.9006314485456546 24.1473024617774712
 20.3321664230639705 29.9763116421131635 12.3578837436295768
 18.8749141279800483 30.8769430906588198 14.7157674872591571