Pt 
 1.0000000000000000
    27.8399999999999999    0.0000000000000000    0.0000000000000000
     0.0000000000000000   27.8399999999999999    0.0000000000000000
     0.0000000000000000    0.0000000000000000   27.8399999999999999
 Pt 
  38
Cartesian
 10.0000000000000000 11.9600000000000009 13.9200000000000017
 10.0000000000000000 13.9200000000000017 11.9600000000000009
 10.0000000000000000 13.9200000000000017 15.8800000000000008
 10.0000000000000000 15.8800000000000008 13.9200000000000017
 11.9600000000000009 10.0000000000000000 13.9200000000000017
 13.9200000000000017 10.0000000000000000 11.9600000000000009
 13.9200000000000017 10.0000000000000000 15.8800000000000008
 11.9600000000000009 13.9200000000000017 10.0000000000000000
 13.9200000000000017 11.9600000000000009 10.0000000000000000
 11.9600000000000009 11.9600000000000009 11.9600000000000009
 11.9600000000000009 13.9200000000000017 13.9200000000000017
 13.9200000000000017 11.9600000000000009 13.9200000000000017
 13.9200000000000017 13.9200000000000017 11.9600000000000009
 11.9600000000000009 11.9600000000000009 15.8800000000000008
 11.9600000000000009 13.9200000000000017 17.8400000000000034
 13.9200000000000017 11.9600000000000009 17.8400000000000034
 13.9200000000000017 13.9200000000000017 15.8800000000000008
 13.9200000000000017 15.8800000000000008 10.0000000000000000
 11.9600000000000009 15.8800000000000008 11.9600000000000009
 11.9600000000000009 17.8400000000000034 13.9200000000000017
 13.9200000000000017 15.8800000000000008 13.9200000000000017
 13.9200000000000017 17.8400000000000034 11.9600000000000009
 11.9600000000000009 15.8800000000000008 15.8800000000000008
 13.9200000000000017 15.8800000000000008 17.8400000000000034
 13.9200000000000017 17.8400000000000034 15.8800000000000008
 15.8800000000000008 10.0000000000000000 13.9200000000000017
 15.8800000000000008 13.9200000000000017 10.0000000000000000
 15.8800000000000008 11.9600000000000009 11.9600000000000009
 15.8800000000000008 13.9200000000000017 13.9200000000000017
 17.8400000000000034 11.9600000000000009 13.9200000000000017
 17.8400000000000034 13.9200000000000017 11.9600000000000009
 15.8800000000000008 11.9600000000000009 15.8800000000000008
 15.8800000000000008 13.9200000000000017 17.8400000000000034
 17.8400000000000034 13.9200000000000017 15.8800000000000008
 15.8800000000000008 15.8800000000000008 11.9600000000000009
 15.8800000000000008 17.8400000000000034 13.9200000000000017
 17.8400000000000034 15.8800000000000008 13.9200000000000017
 15.8800000000000008 15.8800000000000008 15.8800000000000008
