Au 
 1.0000000000000000
    53.2667334314213150    0.0000000000000000    0.0000000000000000
     0.0000000000000000   51.6385436058070795    0.0000000000000000
     0.0000000000000000    0.0000000000000000   40.1949696706877972
 Au 
 428
Cartesian
 26.6333667157106575 24.1491868423351903 10.0000000000000000
 26.6333667157106575 24.1491868423351903 12.8849956672411139
 26.6333667157106575 24.1491868423351903 15.7699913344822278
 26.6333667157106575 24.1491868423351903 18.6549870017233417
 26.6333667157106575 24.1491868423351903 21.5399826689644556
 26.6333667157106575 24.1491868423351903 24.4249783362055695
 26.6333667157106575 24.1491868423351903 27.3099740034466834
 26.6333667157106575 24.1491868423351903 30.1949696706877972
 29.0095619608121815 24.9212594795636520 11.4424978336205569
 29.0095619608121815 24.9212594795636520 14.3274935008616708
 29.0095619608121815 24.9212594795636520 17.2124891681027847
 29.0095619608121815 24.9212594795636520 20.0974848353438986
 29.0095619608121815 24.9212594795636520 22.9824805025850125
 29.0095619608121815 24.9212594795636520 25.8674761698261264
 29.0095619608121815 24.9212594795636520 28.7524718370672403
 26.6333667157106575 26.6476663799740336 11.4424978336205569
 26.6333667157106575 26.6476663799740336 14.3274935008616708
 26.6333667157106575 26.6476663799740336 17.2124891681027847
 26.6333667157106575 26.6476663799740336 20.0974848353438986
 26.6333667157106575 26.6476663799740336 22.9824805025850125
 26.6333667157106575 26.6476663799740336 25.8674761698261264
 26.6333667157106575 26.6476663799740336 28.7524718370672403
 24.2571714706091335 24.9212594795636520 11.4424978336205569
 24.2571714706091335 24.9212594795636520 14.3274935008616708
 24.2571714706091335 24.9212594795636520 17.2124891681027847
 24.2571714706091335 24.9212594795636520 20.0974848353438986
 24.2571714706091335 24.9212594795636520 22.9824805025850125
 24.2571714706091335 24.9212594795636520 25.8674761698261264
 24.2571714706091335 24.9212594795636520 28.7524718370672403
 25.1647972903320287 22.1278744362873070 11.4424978336205569
 25.1647972903320287 22.1278744362873070 14.3274935008616708
 25.1647972903320287 22.1278744362873070 17.2124891681027847
 25.1647972903320287 22.1278744362873070 20.0974848353438986
 25.1647972903320287 22.1278744362873070 22.9824805025850125
 25.1647972903320287 22.1278744362873070 25.8674761698261264
 25.1647972903320287 22.1278744362873070 28.7524718370672403
 28.1019361410892863 22.1278744362873070 11.4424978336205569
 28.1019361410892863 22.1278744362873070 14.3274935008616708
 28.1019361410892863 22.1278744362873070 17.2124891681027847
 28.1019361410892863 22.1278744362873070 20.0974848353438986
 28.1019361410892863 22.1278744362873070 22.9824805025850125
 28.1019361410892863 22.1278744362873070 25.8674761698261264
 28.1019361410892863 22.1278744362873070 28.7524718370672403
 31.3857572059137020 25.6933321167921136 12.8849956672411139
 31.3857572059137020 25.6933321167921136 15.7699913344822278
 31.3857572059137020 25.6933321167921136 18.6549870017233417
 31.3857572059137020 25.6933321167921136 21.5399826689644556
 31.3857572059137020 25.6933321167921136 24.4249783362055695
 31.3857572059137020 25.6933321167921136 27.3099740034466834
 29.0095619608121815 27.4197390172024953 12.8849956672411139
 29.0095619608121815 27.4197390172024953 15.7699913344822278
 29.0095619608121815 27.4197390172024953 18.6549870017233417
 29.0095619608121815 27.4197390172024953 21.5399826689644556
 29.0095619608121815 27.4197390172024953 24.4249783362055695
 29.0095619608121815 27.4197390172024953 27.3099740034466834
 26.6333667157106575 29.1461459176128734 12.8849956672411139
 26.6333667157106575 29.1461459176128734 15.7699913344822278
 26.6333667157106575 29.1461459176128734 18.6549870017233417
 26.6333667157106575 29.1461459176128734 21.5399826689644556
 26.6333667157106575 29.1461459176128734 24.4249783362055695
 26.6333667157106575 29.1461459176128734 27.3099740034466834
 24.2571714706091335 27.4197390172024953 12.8849956672411139
 24.2571714706091335 27.4197390172024953 15.7699913344822278
 24.2571714706091335 27.4197390172024953 18.6549870017233417
 24.2571714706091335 27.4197390172024953 21.5399826689644556
 24.2571714706091335 27.4197390172024953 24.4249783362055695
 24.2571714706091335 27.4197390172024953 27.3099740034466834
 21.8809762255076130 25.6933321167921171 12.8849956672411139
 21.8809762255076130 25.6933321167921171 15.7699913344822278
 21.8809762255076130 25.6933321167921171 18.6549870017233417
 21.8809762255076130 25.6933321167921171 21.5399826689644556
 21.8809762255076130 25.6933321167921171 24.4249783362055695
 21.8809762255076130 25.6933321167921171 27.3099740034466834
 22.7886020452305047 22.8999470735157686 12.8849956672411139
 22.7886020452305047 22.8999470735157686 15.7699913344822278
 22.7886020452305047 22.8999470735157686 18.6549870017233417
 22.7886020452305047 22.8999470735157686 21.5399826689644556
 22.7886020452305047 22.8999470735157686 24.4249783362055695
 22.7886020452305047 22.8999470735157686 27.3099740034466834
 23.6962278649533999 20.1065620302394237 12.8849956672411139
 23.6962278649533999 20.1065620302394237 15.7699913344822278
 23.6962278649533999 20.1065620302394237 18.6549870017233417
 23.6962278649533999 20.1065620302394237 21.5399826689644556
 23.6962278649533999 20.1065620302394237 24.4249783362055695
 23.6962278649533999 20.1065620302394237 27.3099740034466834
 26.6333667157106575 20.1065620302394237 12.8849956672411139
 26.6333667157106575 20.1065620302394237 15.7699913344822278
 26.6333667157106575 20.1065620302394237 18.6549870017233417
 26.6333667157106575 20.1065620302394237 21.5399826689644556
 26.6333667157106575 20.1065620302394237 24.4249783362055695
 26.6333667157106575 20.1065620302394237 27.3099740034466834
 29.5705055664679115 20.1065620302394237 12.8849956672411139
 29.5705055664679115 20.1065620302394237 15.7699913344822278
 29.5705055664679115 20.1065620302394237 18.6549870017233417
 29.5705055664679115 20.1065620302394237 21.5399826689644556
 29.5705055664679115 20.1065620302394237 24.4249783362055695
 29.5705055664679115 20.1065620302394237 27.3099740034466834
 30.4781313861908068 22.8999470735157686 12.8849956672411139
 30.4781313861908068 22.8999470735157686 15.7699913344822278
 30.4781313861908068 22.8999470735157686 18.6549870017233417
 30.4781313861908068 22.8999470735157686 21.5399826689644556
 30.4781313861908068 22.8999470735157686 24.4249783362055695
 30.4781313861908068 22.8999470735157686 27.3099740034466834
 33.7619524510152260 26.4654047540205788 14.3274935008616708
 33.7619524510152260 26.4654047540205788 17.2124891681027847
 33.7619524510152260 26.4654047540205788 20.0974848353438986
 33.7619524510152260 26.4654047540205788 22.9824805025850125
 33.7619524510152260 26.4654047540205788 25.8674761698261264
 31.3857572059137020 28.1918116544309569 14.3274935008616708
 31.3857572059137020 28.1918116544309569 17.2124891681027847
 31.3857572059137020 28.1918116544309569 20.0974848353438986
 31.3857572059137020 28.1918116544309569 22.9824805025850125
 31.3857572059137020 28.1918116544309569 25.8674761698261264
 29.0095619608121815 29.9182185548413351 14.3274935008616708
 29.0095619608121815 29.9182185548413351 17.2124891681027847
 29.0095619608121815 29.9182185548413351 20.0974848353438986
 29.0095619608121815 29.9182185548413351 22.9824805025850125
 29.0095619608121815 29.9182185548413351 25.8674761698261264
 26.6333667157106575 31.6446254552517132 14.3274935008616708
 26.6333667157106575 31.6446254552517132 17.2124891681027847
 26.6333667157106575 31.6446254552517132 20.0974848353438986
 26.6333667157106575 31.6446254552517132 22.9824805025850125
 26.6333667157106575 31.6446254552517132 25.8674761698261264
 24.2571714706091370 29.9182185548413386 14.3274935008616708
 24.2571714706091370 29.9182185548413386 17.2124891681027847
 24.2571714706091370 29.9182185548413386 20.0974848353438986
 24.2571714706091370 29.9182185548413386 22.9824805025850125
 24.2571714706091370 29.9182185548413386 25.8674761698261264
 21.8809762255076130 28.1918116544309569 14.3274935008616708
 21.8809762255076130 28.1918116544309569 17.2124891681027847
 21.8809762255076130 28.1918116544309569 20.0974848353438986
 21.8809762255076130 28.1918116544309569 22.9824805025850125
 21.8809762255076130 28.1918116544309569 25.8674761698261264
 19.5047809804060890 26.4654047540205788 14.3274935008616708
 19.5047809804060890 26.4654047540205788 17.2124891681027847
 19.5047809804060890 26.4654047540205788 20.0974848353438986
 19.5047809804060890 26.4654047540205788 22.9824805025850125
 19.5047809804060890 26.4654047540205788 25.8674761698261264
 20.4124068001289842 23.6720197107442338 14.3274935008616708
 20.4124068001289842 23.6720197107442338 17.2124891681027847
 20.4124068001289842 23.6720197107442338 20.0974848353438986
 20.4124068001289842 23.6720197107442338 22.9824805025850125
 20.4124068001289842 23.6720197107442338 25.8674761698261264
 21.3200326198518795 20.8786346674678853 14.3274935008616708
 21.3200326198518795 20.8786346674678853 17.2124891681027847
 21.3200326198518795 20.8786346674678853 20.0974848353438986
 21.3200326198518795 20.8786346674678853 22.9824805025850125
 21.3200326198518795 20.8786346674678853 25.8674761698261264
 22.2276584395747747 18.0852496241915404 14.3274935008616708
 22.2276584395747747 18.0852496241915404 17.2124891681027847
 22.2276584395747747 18.0852496241915404 20.0974848353438986
 22.2276584395747747 18.0852496241915404 22.9824805025850125
 22.2276584395747747 18.0852496241915404 25.8674761698261264
 25.1647972903320287 18.0852496241915404 14.3274935008616708
 25.1647972903320287 18.0852496241915404 17.2124891681027847
 25.1647972903320287 18.0852496241915404 20.0974848353438986
 25.1647972903320287 18.0852496241915404 22.9824805025850125
 25.1647972903320287 18.0852496241915404 25.8674761698261264
 28.1019361410892827 18.0852496241915404 14.3274935008616708
 28.1019361410892827 18.0852496241915404 17.2124891681027847
 28.1019361410892827 18.0852496241915404 20.0974848353438986
 28.1019361410892827 18.0852496241915404 22.9824805025850125
 28.1019361410892827 18.0852496241915404 25.8674761698261264
 31.0390749918465403 18.0852496241915368 14.3274935008616708
 31.0390749918465403 18.0852496241915368 17.2124891681027847
 31.0390749918465403 18.0852496241915368 20.0974848353438986
 31.0390749918465403 18.0852496241915368 22.9824805025850125
 31.0390749918465403 18.0852496241915368 25.8674761698261264
 31.9467008115694355 20.8786346674678853 14.3274935008616708
 31.9467008115694355 20.8786346674678853 17.2124891681027847
 31.9467008115694355 20.8786346674678853 20.0974848353438986
 31.9467008115694355 20.8786346674678853 22.9824805025850125
 31.9467008115694355 20.8786346674678853 25.8674761698261264
 32.8543266312923308 23.6720197107442303 14.3274935008616708
 32.8543266312923308 23.6720197107442303 17.2124891681027847
 32.8543266312923308 23.6720197107442303 20.0974848353438986
 32.8543266312923308 23.6720197107442303 22.9824805025850125
 32.8543266312923308 23.6720197107442303 25.8674761698261264
 36.1381476961167465 27.2374773912490404 15.7699913344822278
 36.1381476961167465 27.2374773912490404 18.6549870017233417
 36.1381476961167465 27.2374773912490404 21.5399826689644556
 36.1381476961167465 27.2374773912490404 24.4249783362055695
 33.7619524510152260 28.9638842916594186 15.7699913344822278
 33.7619524510152260 28.9638842916594186 18.6549870017233417
 33.7619524510152260 28.9638842916594186 21.5399826689644556
 33.7619524510152260 28.9638842916594186 24.4249783362055695
 31.3857572059137020 30.6902911920698003 15.7699913344822278
 31.3857572059137020 30.6902911920698003 18.6549870017233417
 31.3857572059137020 30.6902911920698003 21.5399826689644556
 31.3857572059137020 30.6902911920698003 24.4249783362055695
 29.0095619608121815 32.4166980924801749 15.7699913344822278
 29.0095619608121815 32.4166980924801749 18.6549870017233417
 29.0095619608121815 32.4166980924801749 21.5399826689644556
 29.0095619608121815 32.4166980924801749 24.4249783362055695
 26.6333667157106575 34.1431049928905566 15.7699913344822278
 26.6333667157106575 34.1431049928905566 18.6549870017233417
 26.6333667157106575 34.1431049928905566 21.5399826689644556
 26.6333667157106575 34.1431049928905566 24.4249783362055695
 24.2571714706091370 32.4166980924801749 15.7699913344822278
 24.2571714706091370 32.4166980924801749 18.6549870017233417
 24.2571714706091370 32.4166980924801749 21.5399826689644556
 24.2571714706091370 32.4166980924801749 24.4249783362055695
 21.8809762255076130 30.6902911920698003 15.7699913344822278
 21.8809762255076130 30.6902911920698003 18.6549870017233417
 21.8809762255076130 30.6902911920698003 21.5399826689644556
 21.8809762255076130 30.6902911920698003 24.4249783362055695
 19.5047809804060890 28.9638842916594221 15.7699913344822278
 19.5047809804060890 28.9638842916594221 18.6549870017233417
 19.5047809804060890 28.9638842916594221 21.5399826689644556
 19.5047809804060890 28.9638842916594221 24.4249783362055695
 17.1285857353045685 27.2374773912490440 15.7699913344822278
 17.1285857353045685 27.2374773912490440 18.6549870017233417
 17.1285857353045685 27.2374773912490440 21.5399826689644556
 17.1285857353045685 27.2374773912490440 24.4249783362055695
 18.0362115550274602 24.4440923479726955 15.7699913344822278
 18.0362115550274602 24.4440923479726955 18.6549870017233417
 18.0362115550274602 24.4440923479726955 21.5399826689644556
 18.0362115550274602 24.4440923479726955 24.4249783362055695
 18.9438373747503555 21.6507073046963505 15.7699913344822278
 18.9438373747503555 21.6507073046963505 18.6549870017233417
 18.9438373747503555 21.6507073046963505 21.5399826689644556
 18.9438373747503555 21.6507073046963505 24.4249783362055695
 19.8514631944732507 18.8573222614200020 15.7699913344822278
 19.8514631944732507 18.8573222614200020 18.6549870017233417
 19.8514631944732507 18.8573222614200020 21.5399826689644556
 19.8514631944732507 18.8573222614200020 24.4249783362055695
 20.7590890141961424 16.0639372181436570 15.7699913344822278
 20.7590890141961424 16.0639372181436570 18.6549870017233417
 20.7590890141961424 16.0639372181436570 21.5399826689644556
 20.7590890141961424 16.0639372181436570 24.4249783362055695
 23.6962278649533999 16.0639372181436535 15.7699913344822278
 23.6962278649533999 16.0639372181436535 18.6549870017233417
 23.6962278649533999 16.0639372181436535 21.5399826689644556
 23.6962278649533999 16.0639372181436535 24.4249783362055695
 26.6333667157106575 16.0639372181436535 15.7699913344822278
 26.6333667157106575 16.0639372181436535 18.6549870017233417
 26.6333667157106575 16.0639372181436535 21.5399826689644556
 26.6333667157106575 16.0639372181436535 24.4249783362055695
 29.5705055664679115 16.0639372181436535 15.7699913344822278
 29.5705055664679115 16.0639372181436535 18.6549870017233417
 29.5705055664679115 16.0639372181436535 21.5399826689644556
 29.5705055664679115 16.0639372181436535 24.4249783362055695
 32.5076444172251655 16.0639372181436535 15.7699913344822278
 32.5076444172251655 16.0639372181436535 18.6549870017233417
 32.5076444172251655 16.0639372181436535 21.5399826689644556
 32.5076444172251655 16.0639372181436535 24.4249783362055695
 33.4152702369480608 18.8573222614200020 15.7699913344822278
 33.4152702369480608 18.8573222614200020 18.6549870017233417
 33.4152702369480608 18.8573222614200020 21.5399826689644556
 33.4152702369480608 18.8573222614200020 24.4249783362055695
 34.3228960566709560 21.6507073046963470 15.7699913344822278
 34.3228960566709560 21.6507073046963470 18.6549870017233417
 34.3228960566709560 21.6507073046963470 21.5399826689644556
 34.3228960566709560 21.6507073046963470 24.4249783362055695
 35.2305218763938512 24.4440923479726919 15.7699913344822278
 35.2305218763938512 24.4440923479726919 18.6549870017233417
 35.2305218763938512 24.4440923479726919 21.5399826689644556
 35.2305218763938512 24.4440923479726919 24.4249783362055695
 38.5143429412182741 28.0095500284775021 17.2124891681027847
 38.5143429412182741 28.0095500284775021 20.0974848353438986
 38.5143429412182741 28.0095500284775021 22.9824805025850125
 36.1381476961167465 29.7359569288878802 17.2124891681027847
 36.1381476961167465 29.7359569288878802 20.0974848353438986
 36.1381476961167465 29.7359569288878802 22.9824805025850125
 33.7619524510152260 31.4623638292982619 17.2124891681027847
 33.7619524510152260 31.4623638292982619 20.0974848353438986
 33.7619524510152260 31.4623638292982619 22.9824805025850125
 31.3857572059137055 33.1887707297086365 17.2124891681027847
 31.3857572059137055 33.1887707297086365 20.0974848353438986
 31.3857572059137055 33.1887707297086365 22.9824805025850125
 29.0095619608121815 34.9151776301190182 17.2124891681027847
 29.0095619608121815 34.9151776301190182 20.0974848353438986
 29.0095619608121815 34.9151776301190182 22.9824805025850125
 26.6333667157106575 36.6415845305293999 17.2124891681027847
 26.6333667157106575 36.6415845305293999 20.0974848353438986
 26.6333667157106575 36.6415845305293999 22.9824805025850125
 24.2571714706091370 34.9151776301190182 17.2124891681027847
 24.2571714706091370 34.9151776301190182 20.0974848353438986
 24.2571714706091370 34.9151776301190182 22.9824805025850125
 21.8809762255076130 33.1887707297086436 17.2124891681027847
 21.8809762255076130 33.1887707297086436 20.0974848353438986
 21.8809762255076130 33.1887707297086436 22.9824805025850125
 19.5047809804060890 31.4623638292982619 17.2124891681027847
 19.5047809804060890 31.4623638292982619 20.0974848353438986
 19.5047809804060890 31.4623638292982619 22.9824805025850125
 17.1285857353045685 29.7359569288878873 17.2124891681027847
 17.1285857353045685 29.7359569288878873 20.0974848353438986
 17.1285857353045685 29.7359569288878873 22.9824805025850125
 14.7523904902030445 28.0095500284775056 17.2124891681027847
 14.7523904902030445 28.0095500284775056 20.0974848353438986
 14.7523904902030445 28.0095500284775056 22.9824805025850125
 15.6600163099259380 25.2161649852011607 17.2124891681027847
 15.6600163099259380 25.2161649852011607 20.0974848353438986
 15.6600163099259380 25.2161649852011607 22.9824805025850125
 16.5676421296488314 22.4227799419248122 17.2124891681027847
 16.5676421296488314 22.4227799419248122 20.0974848353438986
 16.5676421296488314 22.4227799419248122 22.9824805025850125
 17.4752679493717267 19.6293948986484637 17.2124891681027847
 17.4752679493717267 19.6293948986484637 20.0974848353438986
 17.4752679493717267 19.6293948986484637 22.9824805025850125
 18.3828937690946219 16.8360098553721187 17.2124891681027847
 18.3828937690946219 16.8360098553721187 20.0974848353438986
 18.3828937690946219 16.8360098553721187 22.9824805025850125
 19.2905195888175172 14.0426248120957720 17.2124891681027847
 19.2905195888175172 14.0426248120957720 20.0974848353438986
 19.2905195888175172 14.0426248120957720 22.9824805025850125
 22.2276584395747712 14.0426248120957702 17.2124891681027847
 22.2276584395747712 14.0426248120957702 20.0974848353438986
 22.2276584395747712 14.0426248120957702 22.9824805025850125
 25.1647972903320287 14.0426248120957702 17.2124891681027847
 25.1647972903320287 14.0426248120957702 20.0974848353438986
 25.1647972903320287 14.0426248120957702 22.9824805025850125
 28.1019361410892827 14.0426248120957702 17.2124891681027847
 28.1019361410892827 14.0426248120957702 20.0974848353438986
 28.1019361410892827 14.0426248120957702 22.9824805025850125
 31.0390749918465403 14.0426248120957702 17.2124891681027847
 31.0390749918465403 14.0426248120957702 20.0974848353438986
 31.0390749918465403 14.0426248120957702 22.9824805025850125
 33.9762138426037978 14.0426248120957702 17.2124891681027847
 33.9762138426037978 14.0426248120957702 20.0974848353438986
 33.9762138426037978 14.0426248120957702 22.9824805025850125
 34.8838396623266931 16.8360098553721151 17.2124891681027847
 34.8838396623266931 16.8360098553721151 20.0974848353438986
 34.8838396623266931 16.8360098553721151 22.9824805025850125
 35.7914654820495883 19.6293948986484637 17.2124891681027847
 35.7914654820495883 19.6293948986484637 20.0974848353438986
 35.7914654820495883 19.6293948986484637 22.9824805025850125
 36.6990913017724836 22.4227799419248086 17.2124891681027847
 36.6990913017724836 22.4227799419248086 20.0974848353438986
 36.6990913017724836 22.4227799419248086 22.9824805025850125
 37.6067171214953788 25.2161649852011571 17.2124891681027847
 37.6067171214953788 25.2161649852011571 20.0974848353438986
 37.6067171214953788 25.2161649852011571 22.9824805025850125
 40.8905381863197945 28.7816226657059673 18.6549870017233417
 40.8905381863197945 28.7816226657059673 21.5399826689644556
 38.5143429412182741 30.5080295661163454 18.6549870017233417
 38.5143429412182741 30.5080295661163454 21.5399826689644556
 36.1381476961167465 32.2344364665267236 18.6549870017233417
 36.1381476961167465 32.2344364665267236 21.5399826689644556
 33.7619524510152260 33.9608433669370982 18.6549870017233417
 33.7619524510152260 33.9608433669370982 21.5399826689644556
 31.3857572059137055 35.6872502673474798 18.6549870017233417
 31.3857572059137055 35.6872502673474798 21.5399826689644556
 29.0095619608121815 37.4136571677578615 18.6549870017233417
 29.0095619608121815 37.4136571677578615 21.5399826689644556
 26.6333667157106575 39.1400640681682432 18.6549870017233417
 26.6333667157106575 39.1400640681682432 21.5399826689644556
 24.2571714706091370 37.4136571677578615 18.6549870017233417
 24.2571714706091370 37.4136571677578615 21.5399826689644556
 21.8809762255076130 35.6872502673474798 18.6549870017233417
 21.8809762255076130 35.6872502673474798 21.5399826689644556
 19.5047809804060890 33.9608433669371053 18.6549870017233417
 19.5047809804060890 33.9608433669371053 21.5399826689644556
 17.1285857353045685 32.2344364665267307 18.6549870017233417
 17.1285857353045685 32.2344364665267307 21.5399826689644556
 14.7523904902030445 30.5080295661163490 18.6549870017233417
 14.7523904902030445 30.5080295661163490 21.5399826689644556
 12.3761952451015205 28.7816226657059708 18.6549870017233417
 12.3761952451015205 28.7816226657059708 21.5399826689644556
 13.2838210648244157 25.9882376224296223 18.6549870017233417
 13.2838210648244157 25.9882376224296223 21.5399826689644556
 14.1914468845473110 23.1948525791532774 18.6549870017233417
 14.1914468845473110 23.1948525791532774 21.5399826689644556
 15.0990727042702044 20.4014675358769288 18.6549870017233417
 15.0990727042702044 20.4014675358769288 21.5399826689644556
 16.0066985239930979 17.6080824926005803 18.6549870017233417
 16.0066985239930979 17.6080824926005803 21.5399826689644556
 16.9143243437159931 14.8146974493242354 18.6549870017233417
 16.9143243437159931 14.8146974493242354 21.5399826689644556
 17.8219501634388884 12.0213124060478869 18.6549870017233417
 17.8219501634388884 12.0213124060478869 21.5399826689644556
 20.7590890141961424 12.0213124060478869 18.6549870017233417
 20.7590890141961424 12.0213124060478869 21.5399826689644556
 23.6962278649533999 12.0213124060478869 18.6549870017233417
 23.6962278649533999 12.0213124060478869 21.5399826689644556
 26.6333667157106575 12.0213124060478869 18.6549870017233417
 26.6333667157106575 12.0213124060478869 21.5399826689644556
 29.5705055664679115 12.0213124060478869 18.6549870017233417
 29.5705055664679115 12.0213124060478869 21.5399826689644556
 32.5076444172251655 12.0213124060478869 18.6549870017233417
 32.5076444172251655 12.0213124060478869 21.5399826689644556
 35.4447832679824231 12.0213124060478851 18.6549870017233417
 35.4447832679824231 12.0213124060478851 21.5399826689644556
 36.3524090877053183 14.8146974493242318 18.6549870017233417
 36.3524090877053183 14.8146974493242318 21.5399826689644556
 37.2600349074282136 17.6080824926005803 18.6549870017233417
 37.2600349074282136 17.6080824926005803 21.5399826689644556
 38.1676607271511088 20.4014675358769253 18.6549870017233417
 38.1676607271511088 20.4014675358769253 21.5399826689644556
 39.0752865468740040 23.1948525791532703 18.6549870017233417
 39.0752865468740040 23.1948525791532703 21.5399826689644556
 39.9829123665968993 25.9882376224296188 18.6549870017233417
 39.9829123665968993 25.9882376224296188 21.5399826689644556
 43.2667334314213150 29.5536953029344289 20.0974848353438986
 40.8905381863197945 31.2801022033448071 20.0974848353438986
 38.5143429412182741 33.0065091037551852 20.0974848353438986
 36.1381476961167465 34.7329160041655669 20.0974848353438986
 33.7619524510152260 36.4593229045759415 20.0974848353438986
 31.3857572059137055 38.1857298049863232 20.0974848353438986
 29.0095619608121815 39.9121367053967049 20.0974848353438986
 26.6333667157106575 41.6385436058070795 20.0974848353438986
 24.2571714706091370 39.9121367053967049 20.0974848353438986
 21.8809762255076130 38.1857298049863232 20.0974848353438986
 19.5047809804060890 36.4593229045759486 20.0974848353438986
 17.1285857353045685 34.7329160041655669 20.0974848353438986
 14.7523904902030445 33.0065091037551923 20.0974848353438986
 12.3761952451015205 31.2801022033448106 20.0974848353438986
 10.0000000000000000 29.5536953029344325 20.0974848353438986
 10.9076258197228917 26.7603102596580875 20.0974848353438986
 11.8152516394457869 23.9669252163817390 20.0974848353438986
 12.7228774591686822 21.1735401731053905 20.0974848353438986
 13.6305032788915756 18.3801551298290455 20.0974848353438986
 14.5381290986144691 15.5867700865526988 20.0974848353438986
 15.4457549183373661 12.7933850432763503 20.0974848353438986
 16.3533807380602596 10.0000000000000036 20.0974848353438986
 19.2905195888175172 10.0000000000000036 20.0974848353438986
 22.2276584395747712 10.0000000000000036 20.0974848353438986
 25.1647972903320252 10.0000000000000036 20.0974848353438986
 28.1019361410892827 10.0000000000000018 20.0974848353438986
 31.0390749918465403 10.0000000000000036 20.0974848353438986
 33.9762138426037978 10.0000000000000018 20.0974848353438986
 36.9133526933610483 10.0000000000000000 20.0974848353438986
 37.8209785130839435 12.7933850432763485 20.0974848353438986
 38.7286043328068388 15.5867700865526952 20.0974848353438986
 39.6362301525297340 18.3801551298290420 20.0974848353438986
 40.5438559722526293 21.1735401731053869 20.0974848353438986
 41.4514817919755245 23.9669252163817355 20.0974848353438986
 42.3591076116984198 26.7603102596580804 20.0974848353438986
