Au 
 1.0000000000000000
    53.2667334314213150    0.0000000000000000    0.0000000000000000
     0.0000000000000000   51.6385436058070795    0.0000000000000000
     0.0000000000000000    0.0000000000000000   54.6199480068933667
 Au 
 1133
Cartesian
 26.6333667157106575 24.1491868423351903 10.0000000000000000
 26.6333667157106575 24.1491868423351903 12.8849956672411139
 26.6333667157106575 24.1491868423351903 15.7699913344822278
 26.6333667157106575 24.1491868423351903 18.6549870017233417
 26.6333667157106575 24.1491868423351903 21.5399826689644556
 26.6333667157106575 24.1491868423351903 24.4249783362055695
 26.6333667157106575 24.1491868423351903 27.3099740034466834
 26.6333667157106575 24.1491868423351903 30.1949696706877972
 26.6333667157106575 24.1491868423351903 33.0799653379289111
 26.6333667157106575 24.1491868423351903 35.9649610051700250
 26.6333667157106575 24.1491868423351903 38.8499566724111389
 26.6333667157106575 24.1491868423351903 41.7349523396522528
 26.6333667157106575 24.1491868423351903 44.6199480068933667
 29.0095619608121815 24.9212594795636520 11.4424978336205569
 29.0095619608121815 24.9212594795636520 14.3274935008616708
 29.0095619608121815 24.9212594795636520 17.2124891681027847
 29.0095619608121815 24.9212594795636520 20.0974848353438986
 29.0095619608121815 24.9212594795636520 22.9824805025850125
 29.0095619608121815 24.9212594795636520 25.8674761698261264
 29.0095619608121815 24.9212594795636520 28.7524718370672403
 29.0095619608121815 24.9212594795636520 31.6374675043083542
 29.0095619608121815 24.9212594795636520 34.5224631715494681
 29.0095619608121815 24.9212594795636520 37.4074588387905820
 29.0095619608121815 24.9212594795636520 40.2924545060316959
 29.0095619608121815 24.9212594795636520 43.1774501732728098
 26.6333667157106575 26.6476663799740336 11.4424978336205569
 26.6333667157106575 26.6476663799740336 14.3274935008616708
 26.6333667157106575 26.6476663799740336 17.2124891681027847
 26.6333667157106575 26.6476663799740336 20.0974848353438986
 26.6333667157106575 26.6476663799740336 22.9824805025850125
 26.6333667157106575 26.6476663799740336 25.8674761698261264
 26.6333667157106575 26.6476663799740336 28.7524718370672403
 26.6333667157106575 26.6476663799740336 31.6374675043083542
 26.6333667157106575 26.6476663799740336 34.5224631715494681
 26.6333667157106575 26.6476663799740336 37.4074588387905820
 26.6333667157106575 26.6476663799740336 40.2924545060316959
 26.6333667157106575 26.6476663799740336 43.1774501732728098
 24.2571714706091335 24.9212594795636520 11.4424978336205569
 24.2571714706091335 24.9212594795636520 14.3274935008616708
 24.2571714706091335 24.9212594795636520 17.2124891681027847
 24.2571714706091335 24.9212594795636520 20.0974848353438986
 24.2571714706091335 24.9212594795636520 22.9824805025850125
 24.2571714706091335 24.9212594795636520 25.8674761698261264
 24.2571714706091335 24.9212594795636520 28.7524718370672403
 24.2571714706091335 24.9212594795636520 31.6374675043083542
 24.2571714706091335 24.9212594795636520 34.5224631715494681
 24.2571714706091335 24.9212594795636520 37.4074588387905820
 24.2571714706091335 24.9212594795636520 40.2924545060316959
 24.2571714706091335 24.9212594795636520 43.1774501732728098
 25.1647972903320287 22.1278744362873070 11.4424978336205569
 25.1647972903320287 22.1278744362873070 14.3274935008616708
 25.1647972903320287 22.1278744362873070 17.2124891681027847
 25.1647972903320287 22.1278744362873070 20.0974848353438986
 25.1647972903320287 22.1278744362873070 22.9824805025850125
 25.1647972903320287 22.1278744362873070 25.8674761698261264
 25.1647972903320287 22.1278744362873070 28.7524718370672403
 25.1647972903320287 22.1278744362873070 31.6374675043083542
 25.1647972903320287 22.1278744362873070 34.5224631715494681
 25.1647972903320287 22.1278744362873070 37.4074588387905820
 25.1647972903320287 22.1278744362873070 40.2924545060316959
 25.1647972903320287 22.1278744362873070 43.1774501732728098
 28.1019361410892863 22.1278744362873070 11.4424978336205569
 28.1019361410892863 22.1278744362873070 14.3274935008616708
 28.1019361410892863 22.1278744362873070 17.2124891681027847
 28.1019361410892863 22.1278744362873070 20.0974848353438986
 28.1019361410892863 22.1278744362873070 22.9824805025850125
 28.1019361410892863 22.1278744362873070 25.8674761698261264
 28.1019361410892863 22.1278744362873070 28.7524718370672403
 28.1019361410892863 22.1278744362873070 31.6374675043083542
 28.1019361410892863 22.1278744362873070 34.5224631715494681
 28.1019361410892863 22.1278744362873070 37.4074588387905820
 28.1019361410892863 22.1278744362873070 40.2924545060316959
 28.1019361410892863 22.1278744362873070 43.1774501732728098
 31.3857572059137020 25.6933321167921136 12.8849956672411139
 31.3857572059137020 25.6933321167921136 15.7699913344822278
 31.3857572059137020 25.6933321167921136 18.6549870017233417
 31.3857572059137020 25.6933321167921136 21.5399826689644556
 31.3857572059137020 25.6933321167921136 24.4249783362055695
 31.3857572059137020 25.6933321167921136 27.3099740034466834
 31.3857572059137020 25.6933321167921136 30.1949696706877972
 31.3857572059137020 25.6933321167921136 33.0799653379289111
 31.3857572059137020 25.6933321167921136 35.9649610051700250
 31.3857572059137020 25.6933321167921136 38.8499566724111389
 31.3857572059137020 25.6933321167921136 41.7349523396522528
 29.0095619608121815 27.4197390172024953 12.8849956672411139
 29.0095619608121815 27.4197390172024953 15.7699913344822278
 29.0095619608121815 27.4197390172024953 18.6549870017233417
 29.0095619608121815 27.4197390172024953 21.5399826689644556
 29.0095619608121815 27.4197390172024953 24.4249783362055695
 29.0095619608121815 27.4197390172024953 27.3099740034466834
 29.0095619608121815 27.4197390172024953 30.1949696706877972
 29.0095619608121815 27.4197390172024953 33.0799653379289111
 29.0095619608121815 27.4197390172024953 35.9649610051700250
 29.0095619608121815 27.4197390172024953 38.8499566724111389
 29.0095619608121815 27.4197390172024953 41.7349523396522528
 26.6333667157106575 29.1461459176128734 12.8849956672411139
 26.6333667157106575 29.1461459176128734 15.7699913344822278
 26.6333667157106575 29.1461459176128734 18.6549870017233417
 26.6333667157106575 29.1461459176128734 21.5399826689644556
 26.6333667157106575 29.1461459176128734 24.4249783362055695
 26.6333667157106575 29.1461459176128734 27.3099740034466834
 26.6333667157106575 29.1461459176128734 30.1949696706877972
 26.6333667157106575 29.1461459176128734 33.0799653379289111
 26.6333667157106575 29.1461459176128734 35.9649610051700250
 26.6333667157106575 29.1461459176128734 38.8499566724111389
 26.6333667157106575 29.1461459176128734 41.7349523396522528
 24.2571714706091335 27.4197390172024953 12.8849956672411139
 24.2571714706091335 27.4197390172024953 15.7699913344822278
 24.2571714706091335 27.4197390172024953 18.6549870017233417
 24.2571714706091335 27.4197390172024953 21.5399826689644556
 24.2571714706091335 27.4197390172024953 24.4249783362055695
 24.2571714706091335 27.4197390172024953 27.3099740034466834
 24.2571714706091335 27.4197390172024953 30.1949696706877972
 24.2571714706091335 27.4197390172024953 33.0799653379289111
 24.2571714706091335 27.4197390172024953 35.9649610051700250
 24.2571714706091335 27.4197390172024953 38.8499566724111389
 24.2571714706091335 27.4197390172024953 41.7349523396522528
 21.8809762255076130 25.6933321167921171 12.8849956672411139
 21.8809762255076130 25.6933321167921171 15.7699913344822278
 21.8809762255076130 25.6933321167921171 18.6549870017233417
 21.8809762255076130 25.6933321167921171 21.5399826689644556
 21.8809762255076130 25.6933321167921171 24.4249783362055695
 21.8809762255076130 25.6933321167921171 27.3099740034466834
 21.8809762255076130 25.6933321167921171 30.1949696706877972
 21.8809762255076130 25.6933321167921171 33.0799653379289111
 21.8809762255076130 25.6933321167921171 35.9649610051700250
 21.8809762255076130 25.6933321167921171 38.8499566724111389
 21.8809762255076130 25.6933321167921171 41.7349523396522528
 22.7886020452305047 22.8999470735157686 12.8849956672411139
 22.7886020452305047 22.8999470735157686 15.7699913344822278
 22.7886020452305047 22.8999470735157686 18.6549870017233417
 22.7886020452305047 22.8999470735157686 21.5399826689644556
 22.7886020452305047 22.8999470735157686 24.4249783362055695
 22.7886020452305047 22.8999470735157686 27.3099740034466834
 22.7886020452305047 22.8999470735157686 30.1949696706877972
 22.7886020452305047 22.8999470735157686 33.0799653379289111
 22.7886020452305047 22.8999470735157686 35.9649610051700250
 22.7886020452305047 22.8999470735157686 38.8499566724111389
 22.7886020452305047 22.8999470735157686 41.7349523396522528
 23.6962278649533999 20.1065620302394237 12.8849956672411139
 23.6962278649533999 20.1065620302394237 15.7699913344822278
 23.6962278649533999 20.1065620302394237 18.6549870017233417
 23.6962278649533999 20.1065620302394237 21.5399826689644556
 23.6962278649533999 20.1065620302394237 24.4249783362055695
 23.6962278649533999 20.1065620302394237 27.3099740034466834
 23.6962278649533999 20.1065620302394237 30.1949696706877972
 23.6962278649533999 20.1065620302394237 33.0799653379289111
 23.6962278649533999 20.1065620302394237 35.9649610051700250
 23.6962278649533999 20.1065620302394237 38.8499566724111389
 23.6962278649533999 20.1065620302394237 41.7349523396522528
 26.6333667157106575 20.1065620302394237 12.8849956672411139
 26.6333667157106575 20.1065620302394237 15.7699913344822278
 26.6333667157106575 20.1065620302394237 18.6549870017233417
 26.6333667157106575 20.1065620302394237 21.5399826689644556
 26.6333667157106575 20.1065620302394237 24.4249783362055695
 26.6333667157106575 20.1065620302394237 27.3099740034466834
 26.6333667157106575 20.1065620302394237 30.1949696706877972
 26.6333667157106575 20.1065620302394237 33.0799653379289111
 26.6333667157106575 20.1065620302394237 35.9649610051700250
 26.6333667157106575 20.1065620302394237 38.8499566724111389
 26.6333667157106575 20.1065620302394237 41.7349523396522528
 29.5705055664679115 20.1065620302394237 12.8849956672411139
 29.5705055664679115 20.1065620302394237 15.7699913344822278
 29.5705055664679115 20.1065620302394237 18.6549870017233417
 29.5705055664679115 20.1065620302394237 21.5399826689644556
 29.5705055664679115 20.1065620302394237 24.4249783362055695
 29.5705055664679115 20.1065620302394237 27.3099740034466834
 29.5705055664679115 20.1065620302394237 30.1949696706877972
 29.5705055664679115 20.1065620302394237 33.0799653379289111
 29.5705055664679115 20.1065620302394237 35.9649610051700250
 29.5705055664679115 20.1065620302394237 38.8499566724111389
 29.5705055664679115 20.1065620302394237 41.7349523396522528
 30.4781313861908068 22.8999470735157686 12.8849956672411139
 30.4781313861908068 22.8999470735157686 15.7699913344822278
 30.4781313861908068 22.8999470735157686 18.6549870017233417
 30.4781313861908068 22.8999470735157686 21.5399826689644556
 30.4781313861908068 22.8999470735157686 24.4249783362055695
 30.4781313861908068 22.8999470735157686 27.3099740034466834
 30.4781313861908068 22.8999470735157686 30.1949696706877972
 30.4781313861908068 22.8999470735157686 33.0799653379289111
 30.4781313861908068 22.8999470735157686 35.9649610051700250
 30.4781313861908068 22.8999470735157686 38.8499566724111389
 30.4781313861908068 22.8999470735157686 41.7349523396522528
 33.7619524510152260 26.4654047540205788 14.3274935008616708
 33.7619524510152260 26.4654047540205788 17.2124891681027847
 33.7619524510152260 26.4654047540205788 20.0974848353438986
 33.7619524510152260 26.4654047540205788 22.9824805025850125
 33.7619524510152260 26.4654047540205788 25.8674761698261264
 33.7619524510152260 26.4654047540205788 28.7524718370672403
 33.7619524510152260 26.4654047540205788 31.6374675043083542
 33.7619524510152260 26.4654047540205788 34.5224631715494681
 33.7619524510152260 26.4654047540205788 37.4074588387905820
 33.7619524510152260 26.4654047540205788 40.2924545060316959
 31.3857572059137020 28.1918116544309569 14.3274935008616708
 31.3857572059137020 28.1918116544309569 17.2124891681027847
 31.3857572059137020 28.1918116544309569 20.0974848353438986
 31.3857572059137020 28.1918116544309569 22.9824805025850125
 31.3857572059137020 28.1918116544309569 25.8674761698261264
 31.3857572059137020 28.1918116544309569 28.7524718370672403
 31.3857572059137020 28.1918116544309569 31.6374675043083542
 31.3857572059137020 28.1918116544309569 34.5224631715494681
 31.3857572059137020 28.1918116544309569 37.4074588387905820
 31.3857572059137020 28.1918116544309569 40.2924545060316959
 29.0095619608121815 29.9182185548413351 14.3274935008616708
 29.0095619608121815 29.9182185548413351 17.2124891681027847
 29.0095619608121815 29.9182185548413351 20.0974848353438986
 29.0095619608121815 29.9182185548413351 22.9824805025850125
 29.0095619608121815 29.9182185548413351 25.8674761698261264
 29.0095619608121815 29.9182185548413351 28.7524718370672403
 29.0095619608121815 29.9182185548413351 31.6374675043083542
 29.0095619608121815 29.9182185548413351 34.5224631715494681
 29.0095619608121815 29.9182185548413351 37.4074588387905820
 29.0095619608121815 29.9182185548413351 40.2924545060316959
 26.6333667157106575 31.6446254552517132 14.3274935008616708
 26.6333667157106575 31.6446254552517132 17.2124891681027847
 26.6333667157106575 31.6446254552517132 20.0974848353438986
 26.6333667157106575 31.6446254552517132 22.9824805025850125
 26.6333667157106575 31.6446254552517132 25.8674761698261264
 26.6333667157106575 31.6446254552517132 28.7524718370672403
 26.6333667157106575 31.6446254552517132 31.6374675043083542
 26.6333667157106575 31.6446254552517132 34.5224631715494681
 26.6333667157106575 31.6446254552517132 37.4074588387905820
 26.6333667157106575 31.6446254552517132 40.2924545060316959
 24.2571714706091370 29.9182185548413386 14.3274935008616708
 24.2571714706091370 29.9182185548413386 17.2124891681027847
 24.2571714706091370 29.9182185548413386 20.0974848353438986
 24.2571714706091370 29.9182185548413386 22.9824805025850125
 24.2571714706091370 29.9182185548413386 25.8674761698261264
 24.2571714706091370 29.9182185548413386 28.7524718370672403
 24.2571714706091370 29.9182185548413386 31.6374675043083542
 24.2571714706091370 29.9182185548413386 34.5224631715494681
 24.2571714706091370 29.9182185548413386 37.4074588387905820
 24.2571714706091370 29.9182185548413386 40.2924545060316959
 21.8809762255076130 28.1918116544309569 14.3274935008616708
 21.8809762255076130 28.1918116544309569 17.2124891681027847
 21.8809762255076130 28.1918116544309569 20.0974848353438986
 21.8809762255076130 28.1918116544309569 22.9824805025850125
 21.8809762255076130 28.1918116544309569 25.8674761698261264
 21.8809762255076130 28.1918116544309569 28.7524718370672403
 21.8809762255076130 28.1918116544309569 31.6374675043083542
 21.8809762255076130 28.1918116544309569 34.5224631715494681
 21.8809762255076130 28.1918116544309569 37.4074588387905820
 21.8809762255076130 28.1918116544309569 40.2924545060316959
 19.5047809804060890 26.4654047540205788 14.3274935008616708
 19.5047809804060890 26.4654047540205788 17.2124891681027847
 19.5047809804060890 26.4654047540205788 20.0974848353438986
 19.5047809804060890 26.4654047540205788 22.9824805025850125
 19.5047809804060890 26.4654047540205788 25.8674761698261264
 19.5047809804060890 26.4654047540205788 28.7524718370672403
 19.5047809804060890 26.4654047540205788 31.6374675043083542
 19.5047809804060890 26.4654047540205788 34.5224631715494681
 19.5047809804060890 26.4654047540205788 37.4074588387905820
 19.5047809804060890 26.4654047540205788 40.2924545060316959
 20.4124068001289842 23.6720197107442338 14.3274935008616708
 20.4124068001289842 23.6720197107442338 17.2124891681027847
 20.4124068001289842 23.6720197107442338 20.0974848353438986
 20.4124068001289842 23.6720197107442338 22.9824805025850125
 20.4124068001289842 23.6720197107442338 25.8674761698261264
 20.4124068001289842 23.6720197107442338 28.7524718370672403
 20.4124068001289842 23.6720197107442338 31.6374675043083542
 20.4124068001289842 23.6720197107442338 34.5224631715494681
 20.4124068001289842 23.6720197107442338 37.4074588387905820
 20.4124068001289842 23.6720197107442338 40.2924545060316959
 21.3200326198518795 20.8786346674678853 14.3274935008616708
 21.3200326198518795 20.8786346674678853 17.2124891681027847
 21.3200326198518795 20.8786346674678853 20.0974848353438986
 21.3200326198518795 20.8786346674678853 22.9824805025850125
 21.3200326198518795 20.8786346674678853 25.8674761698261264
 21.3200326198518795 20.8786346674678853 28.7524718370672403
 21.3200326198518795 20.8786346674678853 31.6374675043083542
 21.3200326198518795 20.8786346674678853 34.5224631715494681
 21.3200326198518795 20.8786346674678853 37.4074588387905820
 21.3200326198518795 20.8786346674678853 40.2924545060316959
 22.2276584395747747 18.0852496241915404 14.3274935008616708
 22.2276584395747747 18.0852496241915404 17.2124891681027847
 22.2276584395747747 18.0852496241915404 20.0974848353438986
 22.2276584395747747 18.0852496241915404 22.9824805025850125
 22.2276584395747747 18.0852496241915404 25.8674761698261264
 22.2276584395747747 18.0852496241915404 28.7524718370672403
 22.2276584395747747 18.0852496241915404 31.6374675043083542
 22.2276584395747747 18.0852496241915404 34.5224631715494681
 22.2276584395747747 18.0852496241915404 37.4074588387905820
 22.2276584395747747 18.0852496241915404 40.2924545060316959
 25.1647972903320287 18.0852496241915404 14.3274935008616708
 25.1647972903320287 18.0852496241915404 17.2124891681027847
 25.1647972903320287 18.0852496241915404 20.0974848353438986
 25.1647972903320287 18.0852496241915404 22.9824805025850125
 25.1647972903320287 18.0852496241915404 25.8674761698261264
 25.1647972903320287 18.0852496241915404 28.7524718370672403
 25.1647972903320287 18.0852496241915404 31.6374675043083542
 25.1647972903320287 18.0852496241915404 34.5224631715494681
 25.1647972903320287 18.0852496241915404 37.4074588387905820
 25.1647972903320287 18.0852496241915404 40.2924545060316959
 28.1019361410892827 18.0852496241915404 14.3274935008616708
 28.1019361410892827 18.0852496241915404 17.2124891681027847
 28.1019361410892827 18.0852496241915404 20.0974848353438986
 28.1019361410892827 18.0852496241915404 22.9824805025850125
 28.1019361410892827 18.0852496241915404 25.8674761698261264
 28.1019361410892827 18.0852496241915404 28.7524718370672403
 28.1019361410892827 18.0852496241915404 31.6374675043083542
 28.1019361410892827 18.0852496241915404 34.5224631715494681
 28.1019361410892827 18.0852496241915404 37.4074588387905820
 28.1019361410892827 18.0852496241915404 40.2924545060316959
 31.0390749918465403 18.0852496241915368 14.3274935008616708
 31.0390749918465403 18.0852496241915368 17.2124891681027847
 31.0390749918465403 18.0852496241915368 20.0974848353438986
 31.0390749918465403 18.0852496241915368 22.9824805025850125
 31.0390749918465403 18.0852496241915368 25.8674761698261264
 31.0390749918465403 18.0852496241915368 28.7524718370672403
 31.0390749918465403 18.0852496241915368 31.6374675043083542
 31.0390749918465403 18.0852496241915368 34.5224631715494681
 31.0390749918465403 18.0852496241915368 37.4074588387905820
 31.0390749918465403 18.0852496241915368 40.2924545060316959
 31.9467008115694355 20.8786346674678853 14.3274935008616708
 31.9467008115694355 20.8786346674678853 17.2124891681027847
 31.9467008115694355 20.8786346674678853 20.0974848353438986
 31.9467008115694355 20.8786346674678853 22.9824805025850125
 31.9467008115694355 20.8786346674678853 25.8674761698261264
 31.9467008115694355 20.8786346674678853 28.7524718370672403
 31.9467008115694355 20.8786346674678853 31.6374675043083542
 31.9467008115694355 20.8786346674678853 34.5224631715494681
 31.9467008115694355 20.8786346674678853 37.4074588387905820
 31.9467008115694355 20.8786346674678853 40.2924545060316959
 32.8543266312923308 23.6720197107442303 14.3274935008616708
 32.8543266312923308 23.6720197107442303 17.2124891681027847
 32.8543266312923308 23.6720197107442303 20.0974848353438986
 32.8543266312923308 23.6720197107442303 22.9824805025850125
 32.8543266312923308 23.6720197107442303 25.8674761698261264
 32.8543266312923308 23.6720197107442303 28.7524718370672403
 32.8543266312923308 23.6720197107442303 31.6374675043083542
 32.8543266312923308 23.6720197107442303 34.5224631715494681
 32.8543266312923308 23.6720197107442303 37.4074588387905820
 32.8543266312923308 23.6720197107442303 40.2924545060316959
 36.1381476961167465 27.2374773912490404 15.7699913344822278
 36.1381476961167465 27.2374773912490404 18.6549870017233417
 36.1381476961167465 27.2374773912490404 21.5399826689644556
 36.1381476961167465 27.2374773912490404 24.4249783362055695
 36.1381476961167465 27.2374773912490404 27.3099740034466834
 36.1381476961167465 27.2374773912490404 30.1949696706877972
 36.1381476961167465 27.2374773912490404 33.0799653379289111
 36.1381476961167465 27.2374773912490404 35.9649610051700250
 36.1381476961167465 27.2374773912490404 38.8499566724111389
 33.7619524510152260 28.9638842916594186 15.7699913344822278
 33.7619524510152260 28.9638842916594186 18.6549870017233417
 33.7619524510152260 28.9638842916594186 21.5399826689644556
 33.7619524510152260 28.9638842916594186 24.4249783362055695
 33.7619524510152260 28.9638842916594186 27.3099740034466834
 33.7619524510152260 28.9638842916594186 30.1949696706877972
 33.7619524510152260 28.9638842916594186 33.0799653379289111
 33.7619524510152260 28.9638842916594186 35.9649610051700250
 33.7619524510152260 28.9638842916594186 38.8499566724111389
 31.3857572059137020 30.6902911920698003 15.7699913344822278
 31.3857572059137020 30.6902911920698003 18.6549870017233417
 31.3857572059137020 30.6902911920698003 21.5399826689644556
 31.3857572059137020 30.6902911920698003 24.4249783362055695
 31.3857572059137020 30.6902911920698003 27.3099740034466834
 31.3857572059137020 30.6902911920698003 30.1949696706877972
 31.3857572059137020 30.6902911920698003 33.0799653379289111
 31.3857572059137020 30.6902911920698003 35.9649610051700250
 31.3857572059137020 30.6902911920698003 38.8499566724111389
 29.0095619608121815 32.4166980924801749 15.7699913344822278
 29.0095619608121815 32.4166980924801749 18.6549870017233417
 29.0095619608121815 32.4166980924801749 21.5399826689644556
 29.0095619608121815 32.4166980924801749 24.4249783362055695
 29.0095619608121815 32.4166980924801749 27.3099740034466834
 29.0095619608121815 32.4166980924801749 30.1949696706877972
 29.0095619608121815 32.4166980924801749 33.0799653379289111
 29.0095619608121815 32.4166980924801749 35.9649610051700250
 29.0095619608121815 32.4166980924801749 38.8499566724111389
 26.6333667157106575 34.1431049928905566 15.7699913344822278
 26.6333667157106575 34.1431049928905566 18.6549870017233417
 26.6333667157106575 34.1431049928905566 21.5399826689644556
 26.6333667157106575 34.1431049928905566 24.4249783362055695
 26.6333667157106575 34.1431049928905566 27.3099740034466834
 26.6333667157106575 34.1431049928905566 30.1949696706877972
 26.6333667157106575 34.1431049928905566 33.0799653379289111
 26.6333667157106575 34.1431049928905566 35.9649610051700250
 26.6333667157106575 34.1431049928905566 38.8499566724111389
 24.2571714706091370 32.4166980924801749 15.7699913344822278
 24.2571714706091370 32.4166980924801749 18.6549870017233417
 24.2571714706091370 32.4166980924801749 21.5399826689644556
 24.2571714706091370 32.4166980924801749 24.4249783362055695
 24.2571714706091370 32.4166980924801749 27.3099740034466834
 24.2571714706091370 32.4166980924801749 30.1949696706877972
 24.2571714706091370 32.4166980924801749 33.0799653379289111
 24.2571714706091370 32.4166980924801749 35.9649610051700250
 24.2571714706091370 32.4166980924801749 38.8499566724111389
 21.8809762255076130 30.6902911920698003 15.7699913344822278
 21.8809762255076130 30.6902911920698003 18.6549870017233417
 21.8809762255076130 30.6902911920698003 21.5399826689644556
 21.8809762255076130 30.6902911920698003 24.4249783362055695
 21.8809762255076130 30.6902911920698003 27.3099740034466834
 21.8809762255076130 30.6902911920698003 30.1949696706877972
 21.8809762255076130 30.6902911920698003 33.0799653379289111
 21.8809762255076130 30.6902911920698003 35.9649610051700250
 21.8809762255076130 30.6902911920698003 38.8499566724111389
 19.5047809804060890 28.9638842916594221 15.7699913344822278
 19.5047809804060890 28.9638842916594221 18.6549870017233417
 19.5047809804060890 28.9638842916594221 21.5399826689644556
 19.5047809804060890 28.9638842916594221 24.4249783362055695
 19.5047809804060890 28.9638842916594221 27.3099740034466834
 19.5047809804060890 28.9638842916594221 30.1949696706877972
 19.5047809804060890 28.9638842916594221 33.0799653379289111
 19.5047809804060890 28.9638842916594221 35.9649610051700250
 19.5047809804060890 28.9638842916594221 38.8499566724111389
 17.1285857353045685 27.2374773912490440 15.7699913344822278
 17.1285857353045685 27.2374773912490440 18.6549870017233417
 17.1285857353045685 27.2374773912490440 21.5399826689644556
 17.1285857353045685 27.2374773912490440 24.4249783362055695
 17.1285857353045685 27.2374773912490440 27.3099740034466834
 17.1285857353045685 27.2374773912490440 30.1949696706877972
 17.1285857353045685 27.2374773912490440 33.0799653379289111
 17.1285857353045685 27.2374773912490440 35.9649610051700250
 17.1285857353045685 27.2374773912490440 38.8499566724111389
 18.0362115550274602 24.4440923479726955 15.7699913344822278
 18.0362115550274602 24.4440923479726955 18.6549870017233417
 18.0362115550274602 24.4440923479726955 21.5399826689644556
 18.0362115550274602 24.4440923479726955 24.4249783362055695
 18.0362115550274602 24.4440923479726955 27.3099740034466834
 18.0362115550274602 24.4440923479726955 30.1949696706877972
 18.0362115550274602 24.4440923479726955 33.0799653379289111
 18.0362115550274602 24.4440923479726955 35.9649610051700250
 18.0362115550274602 24.4440923479726955 38.8499566724111389
 18.9438373747503555 21.6507073046963505 15.7699913344822278
 18.9438373747503555 21.6507073046963505 18.6549870017233417
 18.9438373747503555 21.6507073046963505 21.5399826689644556
 18.9438373747503555 21.6507073046963505 24.4249783362055695
 18.9438373747503555 21.6507073046963505 27.3099740034466834
 18.9438373747503555 21.6507073046963505 30.1949696706877972
 18.9438373747503555 21.6507073046963505 33.0799653379289111
 18.9438373747503555 21.6507073046963505 35.9649610051700250
 18.9438373747503555 21.6507073046963505 38.8499566724111389
 19.8514631944732507 18.8573222614200020 15.7699913344822278
 19.8514631944732507 18.8573222614200020 18.6549870017233417
 19.8514631944732507 18.8573222614200020 21.5399826689644556
 19.8514631944732507 18.8573222614200020 24.4249783362055695
 19.8514631944732507 18.8573222614200020 27.3099740034466834
 19.8514631944732507 18.8573222614200020 30.1949696706877972
 19.8514631944732507 18.8573222614200020 33.0799653379289111
 19.8514631944732507 18.8573222614200020 35.9649610051700250
 19.8514631944732507 18.8573222614200020 38.8499566724111389
 20.7590890141961424 16.0639372181436570 15.7699913344822278
 20.7590890141961424 16.0639372181436570 18.6549870017233417
 20.7590890141961424 16.0639372181436570 21.5399826689644556
 20.7590890141961424 16.0639372181436570 24.4249783362055695
 20.7590890141961424 16.0639372181436570 27.3099740034466834
 20.7590890141961424 16.0639372181436570 30.1949696706877972
 20.7590890141961424 16.0639372181436570 33.0799653379289111
 20.7590890141961424 16.0639372181436570 35.9649610051700250
 20.7590890141961424 16.0639372181436570 38.8499566724111389
 23.6962278649533999 16.0639372181436535 15.7699913344822278
 23.6962278649533999 16.0639372181436535 18.6549870017233417
 23.6962278649533999 16.0639372181436535 21.5399826689644556
 23.6962278649533999 16.0639372181436535 24.4249783362055695
 23.6962278649533999 16.0639372181436535 27.3099740034466834
 23.6962278649533999 16.0639372181436535 30.1949696706877972
 23.6962278649533999 16.0639372181436535 33.0799653379289111
 23.6962278649533999 16.0639372181436535 35.9649610051700250
 23.6962278649533999 16.0639372181436535 38.8499566724111389
 26.6333667157106575 16.0639372181436535 15.7699913344822278
 26.6333667157106575 16.0639372181436535 18.6549870017233417
 26.6333667157106575 16.0639372181436535 21.5399826689644556
 26.6333667157106575 16.0639372181436535 24.4249783362055695
 26.6333667157106575 16.0639372181436535 27.3099740034466834
 26.6333667157106575 16.0639372181436535 30.1949696706877972
 26.6333667157106575 16.0639372181436535 33.0799653379289111
 26.6333667157106575 16.0639372181436535 35.9649610051700250
 26.6333667157106575 16.0639372181436535 38.8499566724111389
 29.5705055664679115 16.0639372181436535 15.7699913344822278
 29.5705055664679115 16.0639372181436535 18.6549870017233417
 29.5705055664679115 16.0639372181436535 21.5399826689644556
 29.5705055664679115 16.0639372181436535 24.4249783362055695
 29.5705055664679115 16.0639372181436535 27.3099740034466834
 29.5705055664679115 16.0639372181436535 30.1949696706877972
 29.5705055664679115 16.0639372181436535 33.0799653379289111
 29.5705055664679115 16.0639372181436535 35.9649610051700250
 29.5705055664679115 16.0639372181436535 38.8499566724111389
 32.5076444172251655 16.0639372181436535 15.7699913344822278
 32.5076444172251655 16.0639372181436535 18.6549870017233417
 32.5076444172251655 16.0639372181436535 21.5399826689644556
 32.5076444172251655 16.0639372181436535 24.4249783362055695
 32.5076444172251655 16.0639372181436535 27.3099740034466834
 32.5076444172251655 16.0639372181436535 30.1949696706877972
 32.5076444172251655 16.0639372181436535 33.0799653379289111
 32.5076444172251655 16.0639372181436535 35.9649610051700250
 32.5076444172251655 16.0639372181436535 38.8499566724111389
 33.4152702369480608 18.8573222614200020 15.7699913344822278