Pt 
 1.0000000000000000
    46.7299597478649673    0.0000000000000000    0.0000000000000000
     0.0000000000000000   45.4217023985141424    0.0000000000000000
     0.0000000000000000    0.0000000000000000   39.4030100757588642
 Pt 
 358
Cartesian
 23.3649798739324837 23.5943167700867491 10.0000000000000000
 23.3649798739324837 23.5943167700867491 12.7718585822512658
 23.3649798739324837 23.5943167700867491 15.5437171645025316
 23.3649798739324837 23.5943167700867491 18.3155757467538010
 23.3649798739324837 23.5943167700867491 21.0874343290050632
 23.3649798739324837 23.5943167700867491 23.8592929112563326
 23.3649798739324837 23.5943167700867491 26.6311514935075984
 23.3649798739324837 23.5943167700867491 29.4030100757588642
 25.6479909917751243 24.3361120489925256 11.3859292911256329
 25.6479909917751243 24.3361120489925256 14.1577878733768987
 25.6479909917751243 24.3361120489925256 16.9296464556281663
 25.6479909917751243 24.3361120489925256 19.7015050378794321
 25.6479909917751243 24.3361120489925256 22.4733636201306979
 25.6479909917751243 24.3361120489925256 25.2452222023819637
 25.6479909917751243 24.3361120489925256 28.0170807846332295
 23.3649798739324837 25.9948167180142633 11.3859292911256329
 23.3649798739324837 25.9948167180142633 14.1577878733768987
 23.3649798739324837 25.9948167180142633 16.9296464556281663
 23.3649798739324837 25.9948167180142633 19.7015050378794321
 23.3649798739324837 25.9948167180142633 22.4733636201306979
 23.3649798739324837 25.9948167180142633 25.2452222023819637
 23.3649798739324837 25.9948167180142633 28.0170807846332295
 21.0819687560898430 24.3361120489925291 11.3859292911256329
 21.0819687560898430 24.3361120489925291 14.1577878733768987
 21.0819687560898430 24.3361120489925291 16.9296464556281663
 21.0819687560898430 24.3361120489925291 19.7015050378794321
 21.0819687560898430 24.3361120489925291 22.4733636201306979
 21.0819687560898430 24.3361120489925291 25.2452222023819637
 21.0819687560898430 24.3361120489925291 28.0170807846332295
 21.9540014064118409 21.6522715172172155 11.3859292911256329
 21.9540014064118409 21.6522715172172155 14.1577878733768987
 21.9540014064118409 21.6522715172172155 16.9296464556281663
 21.9540014064118409 21.6522715172172155 19.7015050378794321
 21.9540014064118409 21.6522715172172155 22.4733636201306979
 21.9540014064118409 21.6522715172172155 25.2452222023819637
 21.9540014064118409 21.6522715172172155 28.0170807846332295
 24.7759583414531264 21.6522715172172120 11.3859292911256329
 24.7759583414531264 21.6522715172172120 14.1577878733768987
 24.7759583414531264 21.6522715172172120 16.9296464556281663
 24.7759583414531264 21.6522715172172120 19.7015050378794321
 24.7759583414531264 21.6522715172172120 22.4733636201306979
 24.7759583414531264 21.6522715172172120 25.2452222023819637
 24.7759583414531264 21.6522715172172120 28.0170807846332295
 27.9310021096177614 25.0779073278983056 12.7718585822512658
 27.9310021096177614 25.0779073278983056 15.5437171645025334
 27.9310021096177614 25.0779073278983056 18.3155757467538010
 27.9310021096177614 25.0779073278983056 21.0874343290050668
 27.9310021096177614 25.0779073278983056 23.8592929112563326
 27.9310021096177614 25.0779073278983056 26.6311514935075984
 25.6479909917751243 26.7366119969200398 12.7718585822512658
 25.6479909917751243 26.7366119969200398 15.5437171645025334
 25.6479909917751243 26.7366119969200398 18.3155757467538010
 25.6479909917751243 26.7366119969200398 21.0874343290050668
 25.6479909917751243 26.7366119969200398 23.8592929112563326
 25.6479909917751243 26.7366119969200398 26.6311514935075984
 23.3649798739324837 28.3953166659417775 12.7718585822512658
 23.3649798739324837 28.3953166659417775 15.5437171645025334
 23.3649798739324837 28.3953166659417775 18.3155757467538010
 23.3649798739324837 28.3953166659417775 21.0874343290050668
 23.3649798739324837 28.3953166659417775 23.8592929112563326
 23.3649798739324837 28.3953166659417775 26.6311514935075984
 21.0819687560898430 26.7366119969200398 12.7718585822512658
 21.0819687560898430 26.7366119969200398 15.5437171645025334
 21.0819687560898430 26.7366119969200398 18.3155757467538010
 21.0819687560898430 26.7366119969200398 21.0874343290050668
 21.0819687560898430 26.7366119969200398 23.8592929112563326
 21.0819687560898430 26.7366119969200398 26.6311514935075984
 18.7989576382472059 25.0779073278983056 12.7718585822512658
 18.7989576382472059 25.0779073278983056 15.5437171645025334
 18.7989576382472059 25.0779073278983056 18.3155757467538010
 18.7989576382472059 25.0779073278983056 21.0874343290050668
 18.7989576382472059 25.0779073278983056 23.8592929112563326
 18.7989576382472059 25.0779073278983056 26.6311514935075984
 19.6709902885692003 22.3940667961229920 12.7718585822512658
 19.6709902885692003 22.3940667961229920 15.5437171645025334
 19.6709902885692003 22.3940667961229920 18.3155757467538010
 19.6709902885692003 22.3940667961229920 21.0874343290050668
 19.6709902885692003 22.3940667961229920 23.8592929112563326
 19.6709902885692003 22.3940667961229920 26.6311514935075984
 20.5430229388911982 19.7102262643476784 12.7718585822512658
 20.5430229388911982 19.7102262643476784 15.5437171645025334
 20.5430229388911982 19.7102262643476784 18.3155757467538010
 20.5430229388911982 19.7102262643476784 21.0874343290050668
 20.5430229388911982 19.7102262643476784 23.8592929112563326
 20.5430229388911982 19.7102262643476784 26.6311514935075984
 23.3649798739324837 19.7102262643476784 12.7718585822512658
 23.3649798739324837 19.7102262643476784 15.5437171645025334
 23.3649798739324837 19.7102262643476784 18.3155757467538010
 23.3649798739324837 19.7102262643476784 21.0874343290050668
 23.3649798739324837 19.7102262643476784 23.8592929112563326
 23.3649798739324837 19.7102262643476784 26.6311514935075984
 26.1869368089737691 19.7102262643476784 12.7718585822512658
 26.1869368089737691 19.7102262643476784 15.5437171645025334
 26.1869368089737691 19.7102262643476784 18.3155757467538010
 26.1869368089737691 19.7102262643476784 21.0874343290050668
 26.1869368089737691 19.7102262643476784 23.8592929112563326
 26.1869368089737691 19.7102262643476784 26.6311514935075984
 27.0589694592957670 22.3940667961229920 12.7718585822512658
 27.0589694592957670 22.3940667961229920 15.5437171645025334
 27.0589694592957670 22.3940667961229920 18.3155757467538010
 27.0589694592957670 22.3940667961229920 21.0874343290050668
 27.0589694592957670 22.3940667961229920 23.8592929112563326
 27.0589694592957670 22.3940667961229920 26.6311514935075984
 30.2140132274604021 25.8197026068040820 14.1577878733769005
 30.2140132274604021 25.8197026068040820 16.9296464556281663
 30.2140132274604021 25.8197026068040820 19.7015050378794321
 30.2140132274604021 25.8197026068040820 22.4733636201306979
 30.2140132274604021 25.8197026068040820 25.2452222023819637
 27.9310021096177614 27.4784072758258198 14.1577878733769005
 27.9310021096177614 27.4784072758258198 16.9296464556281663
 27.9310021096177614 27.4784072758258198 19.7015050378794321
 27.9310021096177614 27.4784072758258198 22.4733636201306979
 27.9310021096177614 27.4784072758258198 25.2452222023819637
 25.6479909917751243 29.1371119448475540 14.1577878733769005
 25.6479909917751243 29.1371119448475540 16.9296464556281663
 25.6479909917751243 29.1371119448475540 19.7015050378794321
 25.6479909917751243 29.1371119448475540 22.4733636201306979
 25.6479909917751243 29.1371119448475540 25.2452222023819637
 23.3649798739324837 30.7958166138692917 14.1577878733769005
 23.3649798739324837 30.7958166138692917 16.9296464556281663
 23.3649798739324837 30.7958166138692917 19.7015050378794321
 23.3649798739324837 30.7958166138692917 22.4733636201306979
 23.3649798739324837 30.7958166138692917 25.2452222023819637
 21.0819687560898430 29.1371119448475540 14.1577878733769005
 21.0819687560898430 29.1371119448475540 16.9296464556281663
 21.0819687560898430 29.1371119448475540 19.7015050378794321
 21.0819687560898430 29.1371119448475540 22.4733636201306979
 21.0819687560898430 29.1371119448475540 25.2452222023819637
 18.7989576382472059 27.4784072758258198 14.1577878733769005
 18.7989576382472059 27.4784072758258198 16.9296464556281663
 18.7989576382472059 27.4784072758258198 19.7015050378794321
 18.7989576382472059 27.4784072758258198 22.4733636201306979
 18.7989576382472059 27.4784072758258198 25.2452222023819637
 16.5159465204045652 25.8197026068040856 14.1577878733769005
 16.5159465204045652 25.8197026068040856 16.9296464556281663
 16.5159465204045652 25.8197026068040856 19.7015050378794321
 16.5159465204045652 25.8197026068040856 22.4733636201306979
 16.5159465204045652 25.8197026068040856 25.2452222023819637
 17.3879791707265632 23.1358620750287720 14.1577878733769005
 17.3879791707265632 23.1358620750287720 16.9296464556281663
 17.3879791707265632 23.1358620750287720 19.7015050378794321
 17.3879791707265632 23.1358620750287720 22.4733636201306979
 17.3879791707265632 23.1358620750287720 25.2452222023819637
 18.2600118210485576 20.4520215432534584 14.1577878733769005
 18.2600118210485576 20.4520215432534584 16.9296464556281663
 18.2600118210485576 20.4520215432534584 19.7015050378794321
 18.2600118210485576 20.4520215432534584 22.4733636201306979
 18.2600118210485576 20.4520215432534584 25.2452222023819637
 19.1320444713705555 17.7681810114781449 14.1577878733769005
 19.1320444713705555 17.7681810114781449 16.9296464556281663
 19.1320444713705555 17.7681810114781449 19.7015050378794321
 19.1320444713705555 17.7681810114781449 22.4733636201306979
 19.1320444713705555 17.7681810114781449 25.2452222023819637
 21.9540014064118409 17.7681810114781413 14.1577878733769005
 21.9540014064118409 17.7681810114781413 16.9296464556281663
 21.9540014064118409 17.7681810114781413 19.7015050378794321
 21.9540014064118409 17.7681810114781413 22.4733636201306979
 21.9540014064118409 17.7681810114781413 25.2452222023819637
 24.7759583414531264 17.7681810114781413 14.1577878733769005
 24.7759583414531264 17.7681810114781413 16.9296464556281663
 24.7759583414531264 17.7681810114781413 19.7015050378794321
 24.7759583414531264 17.7681810114781413 22.4733636201306979
 24.7759583414531264 17.7681810114781413 25.2452222023819637
 27.5979152764944118 17.7681810114781413 14.1577878733769005
 27.5979152764944118 17.7681810114781413 16.9296464556281663
 27.5979152764944118 17.7681810114781413 19.7015050378794321
 27.5979152764944118 17.7681810114781413 22.4733636201306979
 27.5979152764944118 17.7681810114781413 25.2452222023819637
 28.4699479268164062 20.4520215432534549 14.1577878733769005
 28.4699479268164062 20.4520215432534549 16.9296464556281663
 28.4699479268164062 20.4520215432534549 19.7015050378794321
 28.4699479268164062 20.4520215432534549 22.4733636201306979
 28.4699479268164062 20.4520215432534549 25.2452222023819637
 29.3419805771384041 23.1358620750287685 14.1577878733769005
 29.3419805771384041 23.1358620750287685 16.9296464556281663
 29.3419805771384041 23.1358620750287685 19.7015050378794321
 29.3419805771384041 23.1358620750287685 22.4733636201306979
 29.3419805771384041 23.1358620750287685 25.2452222023819637
 32.4970243453030392 26.5614978857098585 15.5437171645025316
 32.4970243453030392 26.5614978857098585 18.3155757467537974
 32.4970243453030392 26.5614978857098585 21.0874343290050632
 32.4970243453030392 26.5614978857098585 23.8592929112563326
 30.2140132274604021 28.2202025547315962 15.5437171645025316
 30.2140132274604021 28.2202025547315962 18.3155757467537974
 30.2140132274604021 28.2202025547315962 21.0874343290050632
 30.2140132274604021 28.2202025547315962 23.8592929112563326
 27.9310021096177614 29.8789072237533340 15.5437171645025316
 27.9310021096177614 29.8789072237533340 18.3155757467537974
 27.9310021096177614 29.8789072237533340 21.0874343290050632
 27.9310021096177614 29.8789072237533340 23.8592929112563326
 25.6479909917751243 31.5376118927750682 15.5437171645025316
 25.6479909917751243 31.5376118927750682 18.3155757467537974
 25.6479909917751243 31.5376118927750682 21.0874343290050632
 25.6479909917751243 31.5376118927750682 23.8592929112563326
 23.3649798739324837 33.1963165617968059 15.5437171645025316
 23.3649798739324837 33.1963165617968059 18.3155757467537974
 23.3649798739324837 33.1963165617968059 21.0874343290050632
 23.3649798739324837 33.1963165617968059 23.8592929112563326
 21.0819687560898430 31.5376118927750682 15.5437171645025316
 21.0819687560898430 31.5376118927750682 18.3155757467537974
 21.0819687560898430 31.5376118927750682 21.0874343290050632
 21.0819687560898430 31.5376118927750682 23.8592929112563326
 18.7989576382472059 29.8789072237533340 15.5437171645025316
 18.7989576382472059 29.8789072237533340 18.3155757467537974
 18.7989576382472059 29.8789072237533340 21.0874343290050632
 18.7989576382472059 29.8789072237533340 23.8592929112563326
 16.5159465204045652 28.2202025547315998 15.5437171645025316
 16.5159465204045652 28.2202025547315998 18.3155757467537974
 16.5159465204045652 28.2202025547315998 21.0874343290050632
 16.5159465204045652 28.2202025547315998 23.8592929112563326
 14.2329354025619264 26.5614978857098620 15.5437171645025316
 14.2329354025619264 26.5614978857098620 18.3155757467537974
 14.2329354025619264 26.5614978857098620 21.0874343290050632
 14.2329354025619264 26.5614978857098620 23.8592929112563326
 15.1049680528839225 23.8776573539345485 15.5437171645025316
 15.1049680528839225 23.8776573539345485 18.3155757467537974
 15.1049680528839225 23.8776573539345485 21.0874343290050632
 15.1049680528839225 23.8776573539345485 23.8592929112563326
 15.9770007032059187 21.1938168221592349 15.5437171645025316
 15.9770007032059187 21.1938168221592349 18.3155757467537974
 15.9770007032059187 21.1938168221592349 21.0874343290050632
 15.9770007032059187 21.1938168221592349 23.8592929112563326
 16.8490333535279149 18.5099762903839213 15.5437171645025316
 16.8490333535279149 18.5099762903839213 18.3155757467537974
 16.8490333535279149 18.5099762903839213 21.0874343290050632
 16.8490333535279149 18.5099762903839213 23.8592929112563326
 17.7210660038499128 15.8261357586086078 15.5437171645025316
 17.7210660038499128 15.8261357586086078 18.3155757467537974
 17.7210660038499128 15.8261357586086078 21.0874343290050632
 17.7210660038499128 15.8261357586086078 23.8592929112563326
 20.5430229388911982 15.8261357586086078 15.5437171645025316
 20.5430229388911982 15.8261357586086078 18.3155757467537974
 20.5430229388911982 15.8261357586086078 21.0874343290050632
 20.5430229388911982 15.8261357586086078 23.8592929112563326
 23.3649798739324837 15.8261357586086078 15.5437171645025316
 23.3649798739324837 15.8261357586086078 18.3155757467537974
 23.3649798739324837 15.8261357586086078 21.0874343290050632
 23.3649798739324837 15.8261357586086078 23.8592929112563326
 26.1869368089737691 15.8261357586086060 15.5437171645025316
 26.1869368089737691 15.8261357586086060 18.3155757467537974
 26.1869368089737691 15.8261357586086060 21.0874343290050632
 26.1869368089737691 15.8261357586086060 23.8592929112563326
 29.0088937440150509 15.8261357586086060 15.5437171645025316
 29.0088937440150509 15.8261357586086060 18.3155757467537974
 29.0088937440150509 15.8261357586086060 21.0874343290050632
 29.0088937440150509 15.8261357586086060 23.8592929112563326
 29.8809263943370489 18.5099762903839178 15.5437171645025316
 29.8809263943370489 18.5099762903839178 18.3155757467537974
 29.8809263943370489 18.5099762903839178 21.0874343290050632
 29.8809263943370489 18.5099762903839178 23.8592929112563326
 30.7529590446590468 21.1938168221592349 15.5437171645025316
 30.7529590446590468 21.1938168221592349 18.3155757467537974
 30.7529590446590468 21.1938168221592349 21.0874343290050632
 30.7529590446590468 21.1938168221592349 23.8592929112563326
 31.6249916949810448 23.8776573539345449 15.5437171645025316
 31.6249916949810448 23.8776573539345449 18.3155757467537974
 31.6249916949810448 23.8776573539345449 21.0874343290050632
 31.6249916949810448 23.8776573539345449 23.8592929112563326
 32.4970243453030392 28.9619978336373762 16.9296464556281663
 32.4970243453030392 28.9619978336373762 19.7015050378794321
 32.4970243453030392 28.9619978336373762 22.4733636201306979
 30.2140132274604021 30.6207025026591104 16.9296464556281663
 30.2140132274604021 30.6207025026591104 19.7015050378794321
 30.2140132274604021 30.6207025026591104 22.4733636201306979
 27.9310021096177614 32.2794071716808446 16.9296464556281663
 27.9310021096177614 32.2794071716808446 19.7015050378794321
 27.9310021096177614 32.2794071716808446 22.4733636201306979
 25.6479909917751243 33.9381118407025824 16.9296464556281663
 25.6479909917751243 33.9381118407025824 19.7015050378794321
 25.6479909917751243 33.9381118407025824 22.4733636201306979
 21.0819687560898430 33.9381118407025824 16.9296464556281663
 21.0819687560898430 33.9381118407025824 19.7015050378794321
 21.0819687560898430 33.9381118407025824 22.4733636201306979
 18.7989576382472059 32.2794071716808446 16.9296464556281663
 18.7989576382472059 32.2794071716808446 19.7015050378794321
 18.7989576382472059 32.2794071716808446 22.4733636201306979
 16.5159465204045652 30.6207025026591140 16.9296464556281663
 16.5159465204045652 30.6207025026591140 19.7015050378794321
 16.5159465204045652 30.6207025026591140 22.4733636201306979
 14.2329354025619264 28.9619978336373762 16.9296464556281663
 14.2329354025619264 28.9619978336373762 19.7015050378794321
 14.2329354025619264 28.9619978336373762 22.4733636201306979
 12.8219569350412836 24.6194526328403285 16.9296464556281663
 12.8219569350412836 24.6194526328403285 19.7015050378794321
 12.8219569350412836 24.6194526328403285 22.4733636201306979
 13.6939895853632798 21.9356121010650149 16.9296464556281663
 13.6939895853632798 21.9356121010650149 19.7015050378794321
 13.6939895853632798 21.9356121010650149 22.4733636201306979
 14.5660222356852760 19.2517715692897013 16.9296464556281663
 14.5660222356852760 19.2517715692897013 19.7015050378794321
 14.5660222356852760 19.2517715692897013 22.4733636201306979
 15.4380548860072722 16.5679310375143878 16.9296464556281663
 15.4380548860072722 16.5679310375143878 19.7015050378794321
 15.4380548860072722 16.5679310375143878 22.4733636201306979
 19.1320444713705555 13.8840905057390724 16.9296464556281663
 19.1320444713705555 13.8840905057390724 19.7015050378794321
 19.1320444713705555 13.8840905057390724 22.4733636201306979
 21.9540014064118374 13.8840905057390724 16.9296464556281663
 21.9540014064118374 13.8840905057390724 19.7015050378794321
 21.9540014064118374 13.8840905057390724 22.4733636201306979
 24.7759583414531228 13.8840905057390707 16.9296464556281663
 24.7759583414531228 13.8840905057390707 19.7015050378794321
 24.7759583414531228 13.8840905057390707 22.4733636201306979
 27.5979152764944082 13.8840905057390707 16.9296464556281663
 27.5979152764944082 13.8840905057390707 19.7015050378794321
 27.5979152764944082 13.8840905057390707 22.4733636201306979
 31.2919048618576916 16.5679310375143842 16.9296464556281663
 31.2919048618576916 16.5679310375143842 19.7015050378794321
 31.2919048618576916 16.5679310375143842 22.4733636201306979
 32.1639375121796860 19.2517715692896978 16.9296464556281663
 32.1639375121796860 19.2517715692896978 19.7015050378794321
 32.1639375121796860 19.2517715692896978 22.4733636201306979
 33.0359701625016839 21.9356121010650114 16.9296464556281663
 33.0359701625016839 21.9356121010650114 19.7015050378794321
 33.0359701625016839 21.9356121010650114 22.4733636201306979
 33.9080028128236819 24.6194526328403249 16.9296464556281663
 33.9080028128236819 24.6194526328403249 19.7015050378794321
 33.9080028128236819 24.6194526328403249 22.4733636201306979
 32.4970243453030392 31.3624977815648904 18.3155757467537974
 32.4970243453030392 31.3624977815648904 21.0874343290050668
 30.2140132274604021 33.0212024505866282 18.3155757467537974
 30.2140132274604021 33.0212024505866282 21.0874343290050668
 27.9310021096177650 34.6799071196083588 18.3155757467537974
 27.9310021096177650 34.6799071196083588 21.0874343290050668
 18.7989576382472059 34.6799071196083588 18.3155757467537974
 18.7989576382472059 34.6799071196083588 21.0874343290050668
 16.5159465204045652 33.0212024505866282 18.3155757467537974
 16.5159465204045652 33.0212024505866282 21.0874343290050668
 14.2329354025619264 31.3624977815648904 18.3155757467537974
 14.2329354025619264 31.3624977815648904 21.0874343290050668
 11.4109784675206409 22.6774073799707914 18.3155757467537974
 11.4109784675206409 22.6774073799707914 21.0874343290050668
 12.2830111178426371 19.9935668481954778 18.3155757467537974
 12.2830111178426371 19.9935668481954778 21.0874343290050668
 13.1550437681646333 17.3097263164201678 18.3155757467537974
 13.1550437681646333 17.3097263164201678 21.0874343290050668
 20.5430229388911947 11.9420452528695371 18.3155757467537974
 20.5430229388911947 11.9420452528695371 21.0874343290050668
 23.3649798739324801 11.9420452528695371 18.3155757467537974
 23.3649798739324801 11.9420452528695371 21.0874343290050668
 26.1869368089737655 11.9420452528695353 18.3155757467537974
 26.1869368089737655 11.9420452528695353 21.0874343290050668
 33.5749159797003287 17.3097263164201607 18.3155757467537974
 33.5749159797003287 17.3097263164201607 21.0874343290050668
 34.4469486300223267 19.9935668481954743 18.3155757467537974
 34.4469486300223267 19.9935668481954743 21.0874343290050668
 35.3189812803443246 22.6774073799707878 18.3155757467537974
 35.3189812803443246 22.6774073799707878 21.0874343290050668
 32.4970243453030392 33.7629977294924046 19.7015050378794321
 30.2140132274604021 35.4217023985141424 19.7015050378794321
 16.5159465204045652 35.4217023985141424 19.7015050378794321
 14.2329354025619264 33.7629977294924046 19.7015050378794321
  9.9999999999999964 20.7353621271012578 19.7015050378794321
 10.8720326503219944 18.0515215953259442 19.7015050378794321
 21.9540014064118374 10.0000000000000000 19.7015050378794321
 24.7759583414531228 10.0000000000000000 19.7015050378794321
 35.8579270975429694 18.0515215953259371 19.7015050378794321
 36.7299597478649673 20.7353621271012507 19.7015050378794321
