Pt 
 1.0000000000000000
    41.0860458777823965    0.0000000000000000    0.0000000000000000
     0.0000000000000000   40.0540213349635152    0.0000000000000000
     0.0000000000000000    0.0000000000000000   44.9467272402613958
 Pt 
 460
Cartesian
 20.5430229388911982 19.7102262643476820 10.0000000000000000
 20.5430229388911982 19.7102262643476820 12.7718585822512658
 20.5430229388911982 19.7102262643476820 15.5437171645025316
 20.5430229388911982 19.7102262643476820 18.3155757467538010
 20.5430229388911982 19.7102262643476820 21.0874343290050632
 20.5430229388911982 19.7102262643476820 23.8592929112563326
 20.5430229388911982 19.7102262643476820 26.6311514935075984
 20.5430229388911982 19.7102262643476820 29.4030100757588642
 20.5430229388911982 19.7102262643476820 32.1748686580101264
 20.5430229388911982 19.7102262643476820 34.9467272402613958
 22.8260340567338389 20.4520215432534584 11.3859292911256329
 22.8260340567338389 20.4520215432534584 14.1577878733768987
 22.8260340567338389 20.4520215432534584 16.9296464556281663
 22.8260340567338389 20.4520215432534584 19.7015050378794321
 22.8260340567338389 20.4520215432534584 22.4733636201306979
 22.8260340567338389 20.4520215432534584 25.2452222023819637
 22.8260340567338389 20.4520215432534584 28.0170807846332295
 22.8260340567338389 20.4520215432534584 30.7889393668844988
 22.8260340567338389 20.4520215432534584 33.5607979491357611
 20.5430229388911982 22.1107262122751962 11.3859292911256329
 20.5430229388911982 22.1107262122751962 14.1577878733768987
 20.5430229388911982 22.1107262122751962 16.9296464556281663
 20.5430229388911982 22.1107262122751962 19.7015050378794321
 20.5430229388911982 22.1107262122751962 22.4733636201306979
 20.5430229388911982 22.1107262122751962 25.2452222023819637
 20.5430229388911982 22.1107262122751962 28.0170807846332295
 20.5430229388911982 22.1107262122751962 30.7889393668844988
 20.5430229388911982 22.1107262122751962 33.5607979491357611
 18.2600118210485576 20.4520215432534620 11.3859292911256329
 18.2600118210485576 20.4520215432534620 14.1577878733768987
 18.2600118210485576 20.4520215432534620 16.9296464556281663
 18.2600118210485576 20.4520215432534620 19.7015050378794321
 18.2600118210485576 20.4520215432534620 22.4733636201306979
 18.2600118210485576 20.4520215432534620 25.2452222023819637
 18.2600118210485576 20.4520215432534620 28.0170807846332295
 18.2600118210485576 20.4520215432534620 30.7889393668844988
 18.2600118210485576 20.4520215432534620 33.5607979491357611
 19.1320444713705555 17.7681810114781484 11.3859292911256329
 19.1320444713705555 17.7681810114781484 14.1577878733768987
 19.1320444713705555 17.7681810114781484 16.9296464556281663
 19.1320444713705555 17.7681810114781484 19.7015050378794321
 19.1320444713705555 17.7681810114781484 22.4733636201306979
 19.1320444713705555 17.7681810114781484 25.2452222023819637
 19.1320444713705555 17.7681810114781484 28.0170807846332295
 19.1320444713705555 17.7681810114781484 30.7889393668844988
 19.1320444713705555 17.7681810114781484 33.5607979491357611
 21.9540014064118409 17.7681810114781449 11.3859292911256329
 21.9540014064118409 17.7681810114781449 14.1577878733768987
 21.9540014064118409 17.7681810114781449 16.9296464556281663
 21.9540014064118409 17.7681810114781449 19.7015050378794321
 21.9540014064118409 17.7681810114781449 22.4733636201306979
 21.9540014064118409 17.7681810114781449 25.2452222023819637
 21.9540014064118409 17.7681810114781449 28.0170807846332295
 21.9540014064118409 17.7681810114781449 30.7889393668844988
 21.9540014064118409 17.7681810114781449 33.5607979491357611
 25.1090451745764760 21.1938168221592385 12.7718585822512658
 25.1090451745764760 21.1938168221592385 15.5437171645025316
 25.1090451745764760 21.1938168221592385 18.3155757467537974
 25.1090451745764760 21.1938168221592385 21.0874343290050632
 25.1090451745764760 21.1938168221592385 23.8592929112563326
 25.1090451745764760 21.1938168221592385 26.6311514935075948
 25.1090451745764760 21.1938168221592385 29.4030100757588642
 25.1090451745764760 21.1938168221592385 32.1748686580101264
 22.8260340567338389 22.8525214911809726 12.7718585822512658
 22.8260340567338389 22.8525214911809726 15.5437171645025316
 22.8260340567338389 22.8525214911809726 18.3155757467537974
 22.8260340567338389 22.8525214911809726 21.0874343290050632
 22.8260340567338389 22.8525214911809726 23.8592929112563326
 22.8260340567338389 22.8525214911809726 26.6311514935075948
 22.8260340567338389 22.8525214911809726 29.4030100757588642
 22.8260340567338389 22.8525214911809726 32.1748686580101264
 20.5430229388911982 24.5112261602027104 12.7718585822512658
 20.5430229388911982 24.5112261602027104 15.5437171645025316
 20.5430229388911982 24.5112261602027104 18.3155757467537974
 20.5430229388911982 24.5112261602027104 21.0874343290050632
 20.5430229388911982 24.5112261602027104 23.8592929112563326
 20.5430229388911982 24.5112261602027104 26.6311514935075948
 20.5430229388911982 24.5112261602027104 29.4030100757588642
 20.5430229388911982 24.5112261602027104 32.1748686580101264
 18.2600118210485576 22.8525214911809726 12.7718585822512658
 18.2600118210485576 22.8525214911809726 15.5437171645025316
 18.2600118210485576 22.8525214911809726 18.3155757467537974
 18.2600118210485576 22.8525214911809726 21.0874343290050632
 18.2600118210485576 22.8525214911809726 23.8592929112563326
 18.2600118210485576 22.8525214911809726 26.6311514935075948
 18.2600118210485576 22.8525214911809726 29.4030100757588642
 18.2600118210485576 22.8525214911809726 32.1748686580101264
 15.9770007032059205 21.1938168221592385 12.7718585822512658
 15.9770007032059205 21.1938168221592385 15.5437171645025316
 15.9770007032059205 21.1938168221592385 18.3155757467537974
 15.9770007032059205 21.1938168221592385 21.0874343290050632
 15.9770007032059205 21.1938168221592385 23.8592929112563326
 15.9770007032059205 21.1938168221592385 26.6311514935075948
 15.9770007032059205 21.1938168221592385 29.4030100757588642
 15.9770007032059205 21.1938168221592385 32.1748686580101264
 16.8490333535279149 18.5099762903839249 12.7718585822512658
 16.8490333535279149 18.5099762903839249 15.5437171645025316
 16.8490333535279149 18.5099762903839249 18.3155757467537974
 16.8490333535279149 18.5099762903839249 21.0874343290050632
 16.8490333535279149 18.5099762903839249 23.8592929112563326
 16.8490333535279149 18.5099762903839249 26.6311514935075948
 16.8490333535279149 18.5099762903839249 29.4030100757588642
 16.8490333535279149 18.5099762903839249 32.1748686580101264
 17.7210660038499128 15.8261357586086113 12.7718585822512658
 17.7210660038499128 15.8261357586086113 15.5437171645025316
 17.7210660038499128 15.8261357586086113 18.3155757467537974
 17.7210660038499128 15.8261357586086113 21.0874343290050632
 17.7210660038499128 15.8261357586086113 23.8592929112563326
 17.7210660038499128 15.8261357586086113 26.6311514935075948
 17.7210660038499128 15.8261357586086113 29.4030100757588642
 17.7210660038499128 15.8261357586086113 32.1748686580101264
 20.5430229388911982 15.8261357586086113 12.7718585822512658
 20.5430229388911982 15.8261357586086113 15.5437171645025316
 20.5430229388911982 15.8261357586086113 18.3155757467537974
 20.5430229388911982 15.8261357586086113 21.0874343290050632
 20.5430229388911982 15.8261357586086113 23.8592929112563326
 20.5430229388911982 15.8261357586086113 26.6311514935075948
 20.5430229388911982 15.8261357586086113 29.4030100757588642
 20.5430229388911982 15.8261357586086113 32.1748686580101264
 23.3649798739324837 15.8261357586086113 12.7718585822512658
 23.3649798739324837 15.8261357586086113 15.5437171645025316
 23.3649798739324837 15.8261357586086113 18.3155757467537974
 23.3649798739324837 15.8261357586086113 21.0874343290050632
 23.3649798739324837 15.8261357586086113 23.8592929112563326
 23.3649798739324837 15.8261357586086113 26.6311514935075948
 23.3649798739324837 15.8261357586086113 29.4030100757588642
 23.3649798739324837 15.8261357586086113 32.1748686580101264
 24.2370125242544816 18.5099762903839249 12.7718585822512658
 24.2370125242544816 18.5099762903839249 15.5437171645025316
 24.2370125242544816 18.5099762903839249 18.3155757467537974
 24.2370125242544816 18.5099762903839249 21.0874343290050632
 24.2370125242544816 18.5099762903839249 23.8592929112563326
 24.2370125242544816 18.5099762903839249 26.6311514935075948
 24.2370125242544816 18.5099762903839249 29.4030100757588642
 24.2370125242544816 18.5099762903839249 32.1748686580101264
 27.3920562924191167 21.9356121010650149 14.1577878733768987
 27.3920562924191167 21.9356121010650149 16.9296464556281663
 27.3920562924191167 21.9356121010650149 19.7015050378794321
 27.3920562924191167 21.9356121010650149 22.4733636201306979
 27.3920562924191167 21.9356121010650149 25.2452222023819637
 27.3920562924191167 21.9356121010650149 28.0170807846332295
 27.3920562924191167 21.9356121010650149 30.7889393668844988
 25.1090451745764760 23.5943167700867527 14.1577878733768987
 25.1090451745764760 23.5943167700867527 16.9296464556281663
 25.1090451745764760 23.5943167700867527 19.7015050378794321
 25.1090451745764760 23.5943167700867527 22.4733636201306979
 25.1090451745764760 23.5943167700867527 25.2452222023819637
 25.1090451745764760 23.5943167700867527 28.0170807846332295
 25.1090451745764760 23.5943167700867527 30.7889393668844988
 22.8260340567338389 25.2530214391084868 14.1577878733768987
 22.8260340567338389 25.2530214391084868 16.9296464556281663
 22.8260340567338389 25.2530214391084868 19.7015050378794321
 22.8260340567338389 25.2530214391084868 22.4733636201306979
 22.8260340567338389 25.2530214391084868 25.2452222023819637
 22.8260340567338389 25.2530214391084868 28.0170807846332295
 22.8260340567338389 25.2530214391084868 30.7889393668844988
 20.5430229388911982 26.9117261081302246 14.1577878733768987
 20.5430229388911982 26.9117261081302246 16.9296464556281663
 20.5430229388911982 26.9117261081302246 19.7015050378794321
 20.5430229388911982 26.9117261081302246 22.4733636201306979
 20.5430229388911982 26.9117261081302246 25.2452222023819637
 20.5430229388911982 26.9117261081302246 28.0170807846332295
 20.5430229388911982 26.9117261081302246 30.7889393668844988
 18.2600118210485576 25.2530214391084868 14.1577878733768987
 18.2600118210485576 25.2530214391084868 16.9296464556281663
 18.2600118210485576 25.2530214391084868 19.7015050378794321
 18.2600118210485576 25.2530214391084868 22.4733636201306979
 18.2600118210485576 25.2530214391084868 25.2452222023819637
 18.2600118210485576 25.2530214391084868 28.0170807846332295
 18.2600118210485576 25.2530214391084868 30.7889393668844988
 15.9770007032059205 23.5943167700867527 14.1577878733768987
 15.9770007032059205 23.5943167700867527 16.9296464556281663
 15.9770007032059205 23.5943167700867527 19.7015050378794321
 15.9770007032059205 23.5943167700867527 22.4733636201306979
 15.9770007032059205 23.5943167700867527 25.2452222023819637
 15.9770007032059205 23.5943167700867527 28.0170807846332295
 15.9770007032059205 23.5943167700867527 30.7889393668844988
 13.6939895853632798 21.9356121010650185 14.1577878733768987
 13.6939895853632798 21.9356121010650185 16.9296464556281663
 13.6939895853632798 21.9356121010650185 19.7015050378794321
 13.6939895853632798 21.9356121010650185 22.4733636201306979
 13.6939895853632798 21.9356121010650185 25.2452222023819637
 13.6939895853632798 21.9356121010650185 28.0170807846332295
 13.6939895853632798 21.9356121010650185 30.7889393668844988
 14.5660222356852778 19.2517715692897049 14.1577878733768987
 14.5660222356852778 19.2517715692897049 16.9296464556281663
 14.5660222356852778 19.2517715692897049 19.7015050378794321
 14.5660222356852778 19.2517715692897049 22.4733636201306979
 14.5660222356852778 19.2517715692897049 25.2452222023819637
 14.5660222356852778 19.2517715692897049 28.0170807846332295
 14.5660222356852778 19.2517715692897049 30.7889393668844988
 15.4380548860072722 16.5679310375143913 14.1577878733768987
 15.4380548860072722 16.5679310375143913 16.9296464556281663
 15.4380548860072722 16.5679310375143913 19.7015050378794321
 15.4380548860072722 16.5679310375143913 22.4733636201306979
 15.4380548860072722 16.5679310375143913 25.2452222023819637
 15.4380548860072722 16.5679310375143913 28.0170807846332295
 15.4380548860072722 16.5679310375143913 30.7889393668844988
 16.3100875363292701 13.8840905057390778 14.1577878733768987
 16.3100875363292701 13.8840905057390778 16.9296464556281663
 16.3100875363292701 13.8840905057390778 19.7015050378794321
 16.3100875363292701 13.8840905057390778 22.4733636201306979
 16.3100875363292701 13.8840905057390778 25.2452222023819637
 16.3100875363292701 13.8840905057390778 28.0170807846332295
 16.3100875363292701 13.8840905057390778 30.7889393668844988
 19.1320444713705555 13.8840905057390760 14.1577878733768987
 19.1320444713705555 13.8840905057390760 16.9296464556281663
 19.1320444713705555 13.8840905057390760 19.7015050378794321
 19.1320444713705555 13.8840905057390760 22.4733636201306979
 19.1320444713705555 13.8840905057390760 25.2452222023819637
 19.1320444713705555 13.8840905057390760 28.0170807846332295
 19.1320444713705555 13.8840905057390760 30.7889393668844988
 21.9540014064118409 13.8840905057390742 14.1577878733768987
 21.9540014064118409 13.8840905057390742 16.9296464556281663
 21.9540014064118409 13.8840905057390742 19.7015050378794321
 21.9540014064118409 13.8840905057390742 22.4733636201306979
 21.9540014064118409 13.8840905057390742 25.2452222023819637
 21.9540014064118409 13.8840905057390742 28.0170807846332295
 21.9540014064118409 13.8840905057390742 30.7889393668844988
 24.7759583414531264 13.8840905057390742 14.1577878733768987
 24.7759583414531264 13.8840905057390742 16.9296464556281663
 24.7759583414531264 13.8840905057390742 19.7015050378794321
 24.7759583414531264 13.8840905057390742 22.4733636201306979
 24.7759583414531264 13.8840905057390742 25.2452222023819637
 24.7759583414531264 13.8840905057390742 28.0170807846332295
 24.7759583414531264 13.8840905057390742 30.7889393668844988
 25.6479909917751208 16.5679310375143878 14.1577878733768987
 25.6479909917751208 16.5679310375143878 16.9296464556281663
 25.6479909917751208 16.5679310375143878 19.7015050378794321
 25.6479909917751208 16.5679310375143878 22.4733636201306979
 25.6479909917751208 16.5679310375143878 25.2452222023819637
 25.6479909917751208 16.5679310375143878 28.0170807846332295
 25.6479909917751208 16.5679310375143878 30.7889393668844988
 26.5200236420971187 19.2517715692897013 14.1577878733768987
 26.5200236420971187 19.2517715692897013 16.9296464556281663
 26.5200236420971187 19.2517715692897013 19.7015050378794321
 26.5200236420971187 19.2517715692897013 22.4733636201306979
 26.5200236420971187 19.2517715692897013 25.2452222023819637
 26.5200236420971187 19.2517715692897013 28.0170807846332295
 26.5200236420971187 19.2517715692897013 30.7889393668844988
 29.6750674102617538 22.6774073799707914 15.5437171645025316
 29.6750674102617538 22.6774073799707914 18.3155757467538010
 29.6750674102617538 22.6774073799707914 21.0874343290050632
 29.6750674102617538 22.6774073799707914 23.8592929112563326
 29.6750674102617538 22.6774073799707914 26.6311514935075984
 29.6750674102617538 22.6774073799707914 29.4030100757588642
 27.3920562924191167 24.3361120489925291 15.5437171645025316
 27.3920562924191167 24.3361120489925291 18.3155757467538010
 27.3920562924191167 24.3361120489925291 21.0874343290050632
 27.3920562924191167 24.3361120489925291 23.8592929112563326
 27.3920562924191167 24.3361120489925291 26.6311514935075984
 27.3920562924191167 24.3361120489925291 29.4030100757588642
 25.1090451745764760 25.9948167180142669 15.5437171645025316
 25.1090451745764760 25.9948167180142669 18.3155757467538010
 25.1090451745764760 25.9948167180142669 21.0874343290050632
 25.1090451745764760 25.9948167180142669 23.8592929112563326
 25.1090451745764760 25.9948167180142669 26.6311514935075984
 25.1090451745764760 25.9948167180142669 29.4030100757588642
 22.8260340567338389 27.6535213870360010 15.5437171645025316
 22.8260340567338389 27.6535213870360010 18.3155757467538010
 22.8260340567338389 27.6535213870360010 21.0874343290050632
 22.8260340567338389 27.6535213870360010 23.8592929112563326
 22.8260340567338389 27.6535213870360010 26.6311514935075984
 22.8260340567338389 27.6535213870360010 29.4030100757588642
 20.5430229388911982 29.3122260560577388 15.5437171645025316
 20.5430229388911982 29.3122260560577388 18.3155757467538010
 20.5430229388911982 29.3122260560577388 21.0874343290050632
 20.5430229388911982 29.3122260560577388 23.8592929112563326
 20.5430229388911982 29.3122260560577388 26.6311514935075984
 20.5430229388911982 29.3122260560577388 29.4030100757588642
 18.2600118210485576 27.6535213870360010 15.5437171645025316
 18.2600118210485576 27.6535213870360010 18.3155757467538010
 18.2600118210485576 27.6535213870360010 21.0874343290050632
 18.2600118210485576 27.6535213870360010 23.8592929112563326
 18.2600118210485576 27.6535213870360010 26.6311514935075984
 18.2600118210485576 27.6535213870360010 29.4030100757588642
 15.9770007032059205 25.9948167180142669 15.5437171645025316
 15.9770007032059205 25.9948167180142669 18.3155757467538010
 15.9770007032059205 25.9948167180142669 21.0874343290050632
 15.9770007032059205 25.9948167180142669 23.8592929112563326
 15.9770007032059205 25.9948167180142669 26.6311514935075984
 15.9770007032059205 25.9948167180142669 29.4030100757588642
 13.6939895853632798 24.3361120489925327 15.5437171645025316
 13.6939895853632798 24.3361120489925327 18.3155757467538010
 13.6939895853632798 24.3361120489925327 21.0874343290050632
 13.6939895853632798 24.3361120489925327 23.8592929112563326
 13.6939895853632798 24.3361120489925327 26.6311514935075984
 13.6939895853632798 24.3361120489925327 29.4030100757588642
 11.4109784675206409 22.6774073799707949 15.5437171645025316
 11.4109784675206409 22.6774073799707949 18.3155757467538010
 11.4109784675206409 22.6774073799707949 21.0874343290050632
 11.4109784675206409 22.6774073799707949 23.8592929112563326
 11.4109784675206409 22.6774073799707949 26.6311514935075984
 11.4109784675206409 22.6774073799707949 29.4030100757588642
 12.2830111178426371 19.9935668481954814 15.5437171645025316
 12.2830111178426371 19.9935668481954814 18.3155757467538010
 12.2830111178426371 19.9935668481954814 21.0874343290050632
 12.2830111178426371 19.9935668481954814 23.8592929112563326
 12.2830111178426371 19.9935668481954814 26.6311514935075984
 12.2830111178426371 19.9935668481954814 29.4030100757588642
 13.1550437681646333 17.3097263164201678 15.5437171645025316
 13.1550437681646333 17.3097263164201678 18.3155757467538010
 13.1550437681646333 17.3097263164201678 21.0874343290050632
 13.1550437681646333 17.3097263164201678 23.8592929112563326
 13.1550437681646333 17.3097263164201678 26.6311514935075984
 13.1550437681646333 17.3097263164201678 29.4030100757588642
 14.0270764184866294 14.6258857846448542 15.5437171645025316
 14.0270764184866294 14.6258857846448542 18.3155757467538010
 14.0270764184866294 14.6258857846448542 21.0874343290050632
 14.0270764184866294 14.6258857846448542 23.8592929112563326
 14.0270764184866294 14.6258857846448542 26.6311514935075984
 14.0270764184866294 14.6258857846448542 29.4030100757588642
 14.8991090688086274 11.9420452528695407 15.5437171645025316
 14.8991090688086274 11.9420452528695407 18.3155757467538010
 14.8991090688086274 11.9420452528695407 21.0874343290050632
 14.8991090688086274 11.9420452528695407 23.8592929112563326
 14.8991090688086274 11.9420452528695407 26.6311514935075984
 14.8991090688086274 11.9420452528695407 29.4030100757588642
 17.7210660038499128 11.9420452528695407 15.5437171645025316
 17.7210660038499128 11.9420452528695407 18.3155757467538010
 17.7210660038499128 11.9420452528695407 21.0874343290050632
 17.7210660038499128 11.9420452528695407 23.8592929112563326
 17.7210660038499128 11.9420452528695407 26.6311514935075984
 17.7210660038499128 11.9420452528695407 29.4030100757588642
 20.5430229388911982 11.9420452528695407 15.5437171645025316
 20.5430229388911982 11.9420452528695407 18.3155757467538010
 20.5430229388911982 11.9420452528695407 21.0874343290050632
 20.5430229388911982 11.9420452528695407 23.8592929112563326
 20.5430229388911982 11.9420452528695407 26.6311514935075984
 20.5430229388911982 11.9420452528695407 29.4030100757588642
 23.3649798739324837 11.9420452528695389 15.5437171645025316
 23.3649798739324837 11.9420452528695389 18.3155757467538010
 23.3649798739324837 11.9420452528695389 21.0874343290050632
 23.3649798739324837 11.9420452528695389 23.8592929112563326
 23.3649798739324837 11.9420452528695389 26.6311514935075984
 23.3649798739324837 11.9420452528695389 29.4030100757588642
 26.1869368089737655 11.9420452528695389 15.5437171645025316
 26.1869368089737655 11.9420452528695389 18.3155757467538010
 26.1869368089737655 11.9420452528695389 21.0874343290050632
 26.1869368089737655 11.9420452528695389 23.8592929112563326
 26.1869368089737655 11.9420452528695389 26.6311514935075984
 26.1869368089737655 11.9420452528695389 29.4030100757588642
 27.0589694592957635 14.6258857846448507 15.5437171645025316
 27.0589694592957635 14.6258857846448507 18.3155757467538010
 27.0589694592957635 14.6258857846448507 21.0874343290050632
 27.0589694592957635 14.6258857846448507 23.8592929112563326
 27.0589694592957635 14.6258857846448507 26.6311514935075984
 27.0589694592957635 14.6258857846448507 29.4030100757588642
 27.9310021096177614 17.3097263164201678 15.5437171645025316
 27.9310021096177614 17.3097263164201678 18.3155757467538010
 27.9310021096177614 17.3097263164201678 21.0874343290050632
 27.9310021096177614 17.3097263164201678 23.8592929112563326
 27.9310021096177614 17.3097263164201678 26.6311514935075984
 27.9310021096177614 17.3097263164201678 29.4030100757588642
 28.8030347599397594 19.9935668481954778 15.5437171645025316
 28.8030347599397594 19.9935668481954778 18.3155757467538010
 28.8030347599397594 19.9935668481954778 21.0874343290050632
 28.8030347599397594 19.9935668481954778 23.8592929112563326
 28.8030347599397594 19.9935668481954778 26.6311514935075984
 28.8030347599397594 19.9935668481954778 29.4030100757588642
 29.6750674102617538 25.0779073278983091 16.9296464556281663
 29.6750674102617538 25.0779073278983091 19.7015050378794321
 29.6750674102617538 25.0779073278983091 22.4733636201306979
 29.6750674102617538 25.0779073278983091 25.2452222023819637
 29.6750674102617538 25.0779073278983091 28.0170807846332295
 27.3920562924191167 26.7366119969200433 16.9296464556281663
 27.3920562924191167 26.7366119969200433 19.7015050378794321
 27.3920562924191167 26.7366119969200433 22.4733636201306979
 27.3920562924191167 26.7366119969200433 25.2452222023819637
 27.3920562924191167 26.7366119969200433 28.0170807846332295
 25.1090451745764760 28.3953166659417775 16.9296464556281663
 25.1090451745764760 28.3953166659417775 19.7015050378794321
 25.1090451745764760 28.3953166659417775 22.4733636201306979
 25.1090451745764760 28.3953166659417775 25.2452222023819637
 25.1090451745764760 28.3953166659417775 28.0170807846332295
 22.8260340567338389 30.0540213349635152 16.9296464556281663
 22.8260340567338389 30.0540213349635152 19.7015050378794321
 22.8260340567338389 30.0540213349635152 22.4733636201306979
 22.8260340567338389 30.0540213349635152 25.2452222023819637
 22.8260340567338389 30.0540213349635152 28.0170807846332295
 18.2600118210485576 30.0540213349635152 16.9296464556281663
 18.2600118210485576 30.0540213349635152 19.7015050378794321
 18.2600118210485576 30.0540213349635152 22.4733636201306979
 18.2600118210485576 30.0540213349635152 25.2452222023819637
 18.2600118210485576 30.0540213349635152 28.0170807846332295
 15.9770007032059205 28.3953166659417811 16.9296464556281663
 15.9770007032059205 28.3953166659417811 19.7015050378794321
 15.9770007032059205 28.3953166659417811 22.4733636201306979
 15.9770007032059205 28.3953166659417811 25.2452222023819637
 15.9770007032059205 28.3953166659417811 28.0170807846332295
 13.6939895853632798 26.7366119969200469 16.9296464556281663
 13.6939895853632798 26.7366119969200469 19.7015050378794321
 13.6939895853632798 26.7366119969200469 22.4733636201306979
 13.6939895853632798 26.7366119969200469 25.2452222023819637
 13.6939895853632798 26.7366119969200469 28.0170807846332295
 11.4109784675206409 25.0779073278983091 16.9296464556281663
 11.4109784675206409 25.0779073278983091 19.7015050378794321
 11.4109784675206409 25.0779073278983091 22.4733636201306979
 11.4109784675206409 25.0779073278983091 25.2452222023819637
 11.4109784675206409 25.0779073278983091 28.0170807846332295
  9.9999999999999982 20.7353621271012614 16.9296464556281663
  9.9999999999999982 20.7353621271012614 19.7015050378794321
  9.9999999999999982 20.7353621271012614 22.4733636201306979
  9.9999999999999982 20.7353621271012614 25.2452222023819637
  9.9999999999999982 20.7353621271012614 28.0170807846332295
 10.8720326503219944 18.0515215953259478 16.9296464556281663
 10.8720326503219944 18.0515215953259478 19.7015050378794321
 10.8720326503219944 18.0515215953259478 22.4733636201306979
 10.8720326503219944 18.0515215953259478 25.2452222023819637
 10.8720326503219944 18.0515215953259478 28.0170807846332295
 11.7440653006439906 15.3676810635506342 16.9296464556281663
 11.7440653006439906 15.3676810635506342 19.7015050378794321
 11.7440653006439906 15.3676810635506342 22.4733636201306979
 11.7440653006439906 15.3676810635506342 25.2452222023819637
 11.7440653006439906 15.3676810635506342 28.0170807846332295
 12.6160979509659867 12.6838405317753207 16.9296464556281663
 12.6160979509659867 12.6838405317753207 19.7015050378794321
 12.6160979509659867 12.6838405317753207 22.4733636201306979
 12.6160979509659867 12.6838405317753207 25.2452222023819637
 12.6160979509659867 12.6838405317753207 28.0170807846332295
 16.3100875363292701 10.0000000000000053 16.9296464556281663
 16.3100875363292701 10.0000000000000053 19.7015050378794321
 16.3100875363292701 10.0000000000000053 22.4733636201306979
 16.3100875363292701 10.0000000000000053 25.2452222023819637
 16.3100875363292701 10.0000000000000053 28.0170807846332295
 19.1320444713705520 10.0000000000000053 16.9296464556281663
 19.1320444713705520 10.0000000000000053 19.7015050378794321
 19.1320444713705520 10.0000000000000053 22.4733636201306979
 19.1320444713705520 10.0000000000000053 25.2452222023819637
 19.1320444713705520 10.0000000000000053 28.0170807846332295
 21.9540014064118374 10.0000000000000036 16.9296464556281663
 21.9540014064118374 10.0000000000000036 19.7015050378794321
 21.9540014064118374 10.0000000000000036 22.4733636201306979
 21.9540014064118374 10.0000000000000036 25.2452222023819637
 21.9540014064118374 10.0000000000000036 28.0170807846332295
 24.7759583414531228 10.0000000000000036 16.9296464556281663
 24.7759583414531228 10.0000000000000036 19.7015050378794321
 24.7759583414531228 10.0000000000000036 22.4733636201306979
 24.7759583414531228 10.0000000000000036 25.2452222023819637
 24.7759583414531228 10.0000000000000036 28.0170807846332295
 28.4699479268164062 12.6838405317753171 16.9296464556281663
 28.4699479268164062 12.6838405317753171 19.7015050378794321
 28.4699479268164062 12.6838405317753171 22.4733636201306979
 28.4699479268164062 12.6838405317753171 25.2452222023819637
 28.4699479268164062 12.6838405317753171 28.0170807846332295
 29.3419805771384041 15.3676810635506307 16.9296464556281663
 29.3419805771384041 15.3676810635506307 19.7015050378794321
 29.3419805771384041 15.3676810635506307 22.4733636201306979
 29.3419805771384041 15.3676810635506307 25.2452222023819637
 29.3419805771384041 15.3676810635506307 28.0170807846332295
 30.2140132274603985 18.0515215953259442 16.9296464556281663
 30.2140132274603985 18.0515215953259442 19.7015050378794321
 30.2140132274603985 18.0515215953259442 22.4733636201306979
 30.2140132274603985 18.0515215953259442 25.2452222023819637
 30.2140132274603985 18.0515215953259442 28.0170807846332295
 31.0860458777823965 20.7353621271012578 16.9296464556281663
 31.0860458777823965 20.7353621271012578 19.7015050378794321
 31.0860458777823965 20.7353621271012578 22.4733636201306979
 31.0860458777823965 20.7353621271012578 25.2452222023819637
 31.0860458777823965 20.7353621271012578 28.0170807846332295
