Au 
 1.0000000000000000
    29.8164955857231462    0.0000000000000000    0.0000000000000000
     0.0000000000000000   29.8164955857231462    0.0000000000000000
     0.0000000000000000    0.0000000000000000   29.8164955857231462
 Au 
  55
Cartesian
 14.9082477928615731 14.9082477928615731 14.9082477928615731
 17.3623716892923596 14.9082477928615731 13.3915158122640214
 17.3623716892923596 14.9082477928615731 16.4249797734591247
 12.4541238964307865 14.9082477928615731 13.3915158122640214
 12.4541238964307865 14.9082477928615731 16.4249797734591247
 13.3915158122640214 17.3623716892923596 14.9082477928615731
 16.4249797734591247 17.3623716892923596 14.9082477928615731
 13.3915158122640214 12.4541238964307865 14.9082477928615731
 16.4249797734591247 12.4541238964307865 14.9082477928615731
 14.9082477928615731 13.3915158122640214 17.3623716892923596
 14.9082477928615731 16.4249797734591247 17.3623716892923596
 14.9082477928615731 13.3915158122640214 12.4541238964307865
 14.9082477928615731 16.4249797734591247 12.4541238964307865
 19.8164955857231462 14.9082477928615731 11.8747838316664680
 19.8164955857231462 14.9082477928615731 14.9082477928615731
 19.8164955857231462 14.9082477928615731 17.9417117540566764
 10.0000000000000000 14.9082477928615731 11.8747838316664680
 10.0000000000000000 14.9082477928615731 14.9082477928615731
 10.0000000000000000 14.9082477928615731 17.9417117540566764
 11.8747838316664680 19.8164955857231462 14.9082477928615731
 14.9082477928615731 19.8164955857231462 14.9082477928615731
 17.9417117540566764 19.8164955857231462 14.9082477928615731
 11.8747838316664680 10.0000000000000000 14.9082477928615731
 14.9082477928615731 10.0000000000000000 14.9082477928615731
 17.9417117540566764 10.0000000000000000 14.9082477928615731
 14.9082477928615731 11.8747838316664680 19.8164955857231462
 14.9082477928615731 14.9082477928615731 19.8164955857231462
 14.9082477928615731 17.9417117540566764 19.8164955857231462
 14.9082477928615731 11.8747838316664680 10.0000000000000000
 14.9082477928615731 14.9082477928615731 10.0000000000000000
 14.9082477928615731 17.9417117540566764 10.0000000000000000
 17.3623716892923596 13.3915158122640214 18.8791036698899113
 17.3623716892923596 16.4249797734591247 18.8791036698899113
 17.3623716892923596 13.3915158122640214 10.9373919158332349
 17.3623716892923596 16.4249797734591247 10.9373919158332349
 12.4541238964307865 13.3915158122640214 18.8791036698899113
 12.4541238964307865 16.4249797734591247 18.8791036698899113
 12.4541238964307865 13.3915158122640214 10.9373919158332349
 12.4541238964307865 16.4249797734591247 10.9373919158332349
 18.8791036698899113 17.3623716892923596 13.3915158122640214
 18.8791036698899113 17.3623716892923596 16.4249797734591247
 10.9373919158332349 17.3623716892923596 13.3915158122640214
 10.9373919158332349 17.3623716892923596 16.4249797734591247
 18.8791036698899113 12.4541238964307865 13.3915158122640214
 18.8791036698899113 12.4541238964307865 16.4249797734591247
 10.9373919158332349 12.4541238964307865 13.3915158122640214
 10.9373919158332349 12.4541238964307865 16.4249797734591247
 13.3915158122640214 18.8791036698899113 17.3623716892923596
 16.4249797734591247 18.8791036698899113 17.3623716892923596
 13.3915158122640214 10.9373919158332349 17.3623716892923596
 16.4249797734591247 10.9373919158332349 17.3623716892923596
 13.3915158122640214 18.8791036698899113 12.4541238964307865
 16.4249797734591247 18.8791036698899113 12.4541238964307865
 13.3915158122640214 10.9373919158332349 12.4541238964307865
 16.4249797734591247 10.9373919158332349 12.4541238964307865
