Pt 
 1.0000000000000000
    31.7599999999999980    0.0000000000000000    0.0000000000000000
     0.0000000000000000   31.7599999999999980    0.0000000000000000
     0.0000000000000000    0.0000000000000000   31.7599999999999980
 Pt 
  79
Cartesian
 10.0000000000000000 13.9199999999999982 15.8799999999999990
 10.0000000000000000 15.8799999999999990 13.9199999999999982
 10.0000000000000000 15.8799999999999990 17.8399999999999999
 10.0000000000000000 17.8399999999999999 15.8799999999999990
 13.9199999999999982 10.0000000000000000 15.8799999999999990
 11.9599999999999991 13.9199999999999982 13.9199999999999982
 13.9199999999999982 11.9599999999999991 13.9199999999999982
 13.9199999999999982 13.9199999999999982 11.9599999999999991
 11.9599999999999991 11.9599999999999991 15.8799999999999990
 11.9599999999999991 13.9199999999999982 17.8399999999999999
 13.9199999999999982 11.9599999999999991 17.8399999999999999
 13.9199999999999982 13.9199999999999982 15.8799999999999990
 13.9199999999999982 13.9199999999999982 19.7999999999999972
 13.9199999999999982 15.8799999999999990 10.0000000000000000
 11.9599999999999991 15.8799999999999990 11.9599999999999991
 11.9599999999999991 17.8399999999999999 13.9199999999999982
 13.9199999999999982 15.8799999999999990 13.9199999999999982
 13.9199999999999982 17.8399999999999999 11.9599999999999991
 11.9599999999999991 15.8799999999999990 15.8799999999999990
 11.9599999999999991 17.8399999999999999 17.8399999999999999
 13.9199999999999982 15.8799999999999990 17.8399999999999999
 13.9199999999999982 17.8399999999999999 15.8799999999999990
 11.9599999999999991 15.8799999999999990 19.7999999999999972
 13.9199999999999982 15.8799999999999990 21.7599999999999980
 13.9199999999999982 17.8399999999999999 19.7999999999999972
 13.9199999999999982 19.7999999999999972 13.9199999999999982
 11.9599999999999991 19.7999999999999972 15.8799999999999990
 13.9199999999999982 19.7999999999999972 17.8399999999999999
 13.9199999999999982 21.7599999999999980 15.8799999999999990
 15.8799999999999990 10.0000000000000000 13.9199999999999982
 15.8799999999999990 10.0000000000000000 17.8399999999999999
 17.8399999999999999 10.0000000000000000 15.8799999999999990
 15.8799999999999990 13.9199999999999982 10.0000000000000000
 15.8799999999999990 11.9599999999999991 11.9599999999999991
 15.8799999999999990 13.9199999999999982 13.9199999999999982
 17.8399999999999999 11.9599999999999991 13.9199999999999982
 17.8399999999999999 13.9199999999999982 11.9599999999999991
 15.8799999999999990 11.9599999999999991 15.8799999999999990
 15.8799999999999990 13.9199999999999982 17.8399999999999999
 17.8399999999999999 11.9599999999999991 17.8399999999999999
 17.8399999999999999 13.9199999999999982 15.8799999999999990
 15.8799999999999990 11.9599999999999991 19.7999999999999972
 15.8799999999999990 13.9199999999999982 21.7599999999999980
 17.8399999999999999 13.9199999999999982 19.7999999999999972
 15.8799999999999990 17.8399999999999999 10.0000000000000000
 17.8399999999999999 15.8799999999999990 10.0000000000000000
 15.8799999999999990 15.8799999999999990 11.9599999999999991
 15.8799999999999990 17.8399999999999999 13.9199999999999982
 17.8399999999999999 15.8799999999999990 13.9199999999999982
 17.8399999999999999 17.8399999999999999 11.9599999999999991
 15.8799999999999990 15.8799999999999990 15.8799999999999990
 15.8799999999999990 17.8399999999999999 17.8399999999999999
 17.8399999999999999 15.8799999999999990 17.8399999999999999
 17.8399999999999999 17.8399999999999999 15.8799999999999990
 15.8799999999999990 15.8799999999999990 19.7999999999999972
 15.8799999999999990 17.8399999999999999 21.7599999999999980
 17.8399999999999999 15.8799999999999990 21.7599999999999980
 17.8399999999999999 17.8399999999999999 19.7999999999999972
 15.8799999999999990 19.7999999999999972 11.9599999999999991
 15.8799999999999990 21.7599999999999980 13.9199999999999982
 17.8399999999999999 19.7999999999999972 13.9199999999999982
 15.8799999999999990 19.7999999999999972 15.8799999999999990
 15.8799999999999990 21.7599999999999980 17.8399999999999999
 17.8399999999999999 19.7999999999999972 17.8399999999999999
 17.8399999999999999 21.7599999999999980 15.8799999999999990
 15.8799999999999990 19.7999999999999972 19.7999999999999972
 19.7999999999999972 13.9199999999999982 13.9199999999999982
 19.7999999999999972 11.9599999999999991 15.8799999999999990
 19.7999999999999972 13.9199999999999982 17.8399999999999999
 21.7599999999999980 13.9199999999999982 15.8799999999999990
 19.7999999999999972 15.8799999999999990 11.9599999999999991
 19.7999999999999972 17.8399999999999999 13.9199999999999982
 21.7599999999999980 15.8799999999999990 13.9199999999999982
 19.7999999999999972 15.8799999999999990 15.8799999999999990
 19.7999999999999972 17.8399999999999999 17.8399999999999999
 21.7599999999999980 15.8799999999999990 17.8399999999999999
 21.7599999999999980 17.8399999999999999 15.8799999999999990
 19.7999999999999972 15.8799999999999990 19.7999999999999972
 19.7999999999999972 19.7999999999999972 15.8799999999999990
