Au 
 1.0000000000000000
    71.5829309640991767    0.0000000000000000    0.0000000000000000
     0.0000000000000000   69.0582826230095748    0.0000000000000000
     0.0000000000000000    0.0000000000000000   54.6199480068933667
 Au 
 1763
Cartesian
 35.7914654820495883 34.2557488725746140 10.0000000000000000
 35.7914654820495883 34.2557488725746140 12.8849956672411139
 35.7914654820495883 34.2557488725746140 15.7699913344822278
 35.7914654820495883 34.2557488725746140 18.6549870017233417
 35.7914654820495883 34.2557488725746140 21.5399826689644556
 35.7914654820495883 34.2557488725746140 24.4249783362055695
 35.7914654820495883 34.2557488725746140 27.3099740034466834
 35.7914654820495883 34.2557488725746140 30.1949696706877972
 35.7914654820495883 34.2557488725746140 33.0799653379289111
 35.7914654820495883 34.2557488725746140 35.9649610051700250
 35.7914654820495883 34.2557488725746140 38.8499566724111389
 35.7914654820495883 34.2557488725746140 41.7349523396522528
 35.7914654820495883 34.2557488725746140 44.6199480068933667
 38.1676607271511088 35.0278215098030756 11.4424978336205569
 38.1676607271511088 35.0278215098030756 14.3274935008616708
 38.1676607271511088 35.0278215098030756 17.2124891681027847
 38.1676607271511088 35.0278215098030756 20.0974848353438986
 38.1676607271511088 35.0278215098030756 22.9824805025850125
 38.1676607271511088 35.0278215098030756 25.8674761698261264
 38.1676607271511088 35.0278215098030756 28.7524718370672403
 38.1676607271511088 35.0278215098030756 31.6374675043083542
 38.1676607271511088 35.0278215098030756 34.5224631715494681
 38.1676607271511088 35.0278215098030756 37.4074588387905820
 38.1676607271511088 35.0278215098030756 40.2924545060316959
 38.1676607271511088 35.0278215098030756 43.1774501732728098
 35.7914654820495883 36.7542284102134573 11.4424978336205569
 35.7914654820495883 36.7542284102134573 14.3274935008616708
 35.7914654820495883 36.7542284102134573 17.2124891681027847
 35.7914654820495883 36.7542284102134573 20.0974848353438986
 35.7914654820495883 36.7542284102134573 22.9824805025850125
 35.7914654820495883 36.7542284102134573 25.8674761698261264
 35.7914654820495883 36.7542284102134573 28.7524718370672403
 35.7914654820495883 36.7542284102134573 31.6374675043083542
 35.7914654820495883 36.7542284102134573 34.5224631715494681
 35.7914654820495883 36.7542284102134573 37.4074588387905820
 35.7914654820495883 36.7542284102134573 40.2924545060316959
 35.7914654820495883 36.7542284102134573 43.1774501732728098
 33.4152702369480679 35.0278215098030756 11.4424978336205569
 33.4152702369480679 35.0278215098030756 14.3274935008616708
 33.4152702369480679 35.0278215098030756 17.2124891681027847
 33.4152702369480679 35.0278215098030756 20.0974848353438986
 33.4152702369480679 35.0278215098030756 22.9824805025850125
 33.4152702369480679 35.0278215098030756 25.8674761698261264
 33.4152702369480679 35.0278215098030756 28.7524718370672403
 33.4152702369480679 35.0278215098030756 31.6374675043083542
 33.4152702369480679 35.0278215098030756 34.5224631715494681
 33.4152702369480679 35.0278215098030756 37.4074588387905820
 33.4152702369480679 35.0278215098030756 40.2924545060316959
 33.4152702369480679 35.0278215098030756 43.1774501732728098
 34.3228960566709631 32.2344364665267307 11.4424978336205569
 34.3228960566709631 32.2344364665267307 14.3274935008616708
 34.3228960566709631 32.2344364665267307 17.2124891681027847
 34.3228960566709631 32.2344364665267307 20.0974848353438986
 34.3228960566709631 32.2344364665267307 22.9824805025850125
 34.3228960566709631 32.2344364665267307 25.8674761698261264
 34.3228960566709631 32.2344364665267307 28.7524718370672403
 34.3228960566709631 32.2344364665267307 31.6374675043083542
 34.3228960566709631 32.2344364665267307 34.5224631715494681
 34.3228960566709631 32.2344364665267307 37.4074588387905820
 34.3228960566709631 32.2344364665267307 40.2924545060316959
 34.3228960566709631 32.2344364665267307 43.1774501732728098
 37.2600349074282136 32.2344364665267307 11.4424978336205569
 37.2600349074282136 32.2344364665267307 14.3274935008616708
 37.2600349074282136 32.2344364665267307 17.2124891681027847
 37.2600349074282136 32.2344364665267307 20.0974848353438986
 37.2600349074282136 32.2344364665267307 22.9824805025850125
 37.2600349074282136 32.2344364665267307 25.8674761698261264
 37.2600349074282136 32.2344364665267307 28.7524718370672403
 37.2600349074282136 32.2344364665267307 31.6374675043083542
 37.2600349074282136 32.2344364665267307 34.5224631715494681
 37.2600349074282136 32.2344364665267307 37.4074588387905820
 37.2600349074282136 32.2344364665267307 40.2924545060316959
 37.2600349074282136 32.2344364665267307 43.1774501732728098
 40.5438559722526364 35.7998941470315373 12.8849956672411139
 40.5438559722526364 35.7998941470315373 15.7699913344822278
 40.5438559722526364 35.7998941470315373 18.6549870017233417
 40.5438559722526364 35.7998941470315373 21.5399826689644556
 40.5438559722526364 35.7998941470315373 24.4249783362055695
 40.5438559722526364 35.7998941470315373 27.3099740034466834
 40.5438559722526364 35.7998941470315373 30.1949696706877972
 40.5438559722526364 35.7998941470315373 33.0799653379289111
 40.5438559722526364 35.7998941470315373 35.9649610051700250
 40.5438559722526364 35.7998941470315373 38.8499566724111389
 40.5438559722526364 35.7998941470315373 41.7349523396522528
 38.1676607271511088 37.5263010474419190 12.8849956672411139
 38.1676607271511088 37.5263010474419190 15.7699913344822278
 38.1676607271511088 37.5263010474419190 18.6549870017233417
 38.1676607271511088 37.5263010474419190 21.5399826689644556
 38.1676607271511088 37.5263010474419190 24.4249783362055695
 38.1676607271511088 37.5263010474419190 27.3099740034466834
 38.1676607271511088 37.5263010474419190 30.1949696706877972
 38.1676607271511088 37.5263010474419190 33.0799653379289111
 38.1676607271511088 37.5263010474419190 35.9649610051700250
 38.1676607271511088 37.5263010474419190 38.8499566724111389
 38.1676607271511088 37.5263010474419190 41.7349523396522528
 35.7914654820495883 39.2527079478523007 12.8849956672411139
 35.7914654820495883 39.2527079478523007 15.7699913344822278
 35.7914654820495883 39.2527079478523007 18.6549870017233417
 35.7914654820495883 39.2527079478523007 21.5399826689644556
 35.7914654820495883 39.2527079478523007 24.4249783362055695
 35.7914654820495883 39.2527079478523007 27.3099740034466834
 35.7914654820495883 39.2527079478523007 30.1949696706877972
 35.7914654820495883 39.2527079478523007 33.0799653379289111
 35.7914654820495883 39.2527079478523007 35.9649610051700250
 35.7914654820495883 39.2527079478523007 38.8499566724111389
 35.7914654820495883 39.2527079478523007 41.7349523396522528
 33.4152702369480679 37.5263010474419190 12.8849956672411139
 33.4152702369480679 37.5263010474419190 15.7699913344822278
 33.4152702369480679 37.5263010474419190 18.6549870017233417
 33.4152702369480679 37.5263010474419190 21.5399826689644556
 33.4152702369480679 37.5263010474419190 24.4249783362055695
 33.4152702369480679 37.5263010474419190 27.3099740034466834
 33.4152702369480679 37.5263010474419190 30.1949696706877972
 33.4152702369480679 37.5263010474419190 33.0799653379289111
 33.4152702369480679 37.5263010474419190 35.9649610051700250
 33.4152702369480679 37.5263010474419190 38.8499566724111389
 33.4152702369480679 37.5263010474419190 41.7349523396522528
 31.0390749918465438 35.7998941470315373 12.8849956672411139
 31.0390749918465438 35.7998941470315373 15.7699913344822278
 31.0390749918465438 35.7998941470315373 18.6549870017233417
 31.0390749918465438 35.7998941470315373 21.5399826689644556
 31.0390749918465438 35.7998941470315373 24.4249783362055695
 31.0390749918465438 35.7998941470315373 27.3099740034466834
 31.0390749918465438 35.7998941470315373 30.1949696706877972
 31.0390749918465438 35.7998941470315373 33.0799653379289111
 31.0390749918465438 35.7998941470315373 35.9649610051700250
 31.0390749918465438 35.7998941470315373 38.8499566724111389
 31.0390749918465438 35.7998941470315373 41.7349523396522528
 31.9467008115694355 33.0065091037551923 12.8849956672411139
 31.9467008115694355 33.0065091037551923 15.7699913344822278
 31.9467008115694355 33.0065091037551923 18.6549870017233417
 31.9467008115694355 33.0065091037551923 21.5399826689644556
 31.9467008115694355 33.0065091037551923 24.4249783362055695
 31.9467008115694355 33.0065091037551923 27.3099740034466834
 31.9467008115694355 33.0065091037551923 30.1949696706877972
 31.9467008115694355 33.0065091037551923 33.0799653379289111
 31.9467008115694355 33.0065091037551923 35.9649610051700250
 31.9467008115694355 33.0065091037551923 38.8499566724111389
 31.9467008115694355 33.0065091037551923 41.7349523396522528
 32.8543266312923308 30.2131240604788474 12.8849956672411139
 32.8543266312923308 30.2131240604788474 15.7699913344822278
 32.8543266312923308 30.2131240604788474 18.6549870017233417
 32.8543266312923308 30.2131240604788474 21.5399826689644556
 32.8543266312923308 30.2131240604788474 24.4249783362055695
 32.8543266312923308 30.2131240604788474 27.3099740034466834
 32.8543266312923308 30.2131240604788474 30.1949696706877972
 32.8543266312923308 30.2131240604788474 33.0799653379289111
 32.8543266312923308 30.2131240604788474 35.9649610051700250
 32.8543266312923308 30.2131240604788474 38.8499566724111389
 32.8543266312923308 30.2131240604788474 41.7349523396522528
 35.7914654820495883 30.2131240604788474 12.8849956672411139
 35.7914654820495883 30.2131240604788474 15.7699913344822278
 35.7914654820495883 30.2131240604788474 18.6549870017233417
 35.7914654820495883 30.2131240604788474 21.5399826689644556
 35.7914654820495883 30.2131240604788474 24.4249783362055695
 35.7914654820495883 30.2131240604788474 27.3099740034466834
 35.7914654820495883 30.2131240604788474 30.1949696706877972
 35.7914654820495883 30.2131240604788474 33.0799653379289111
 35.7914654820495883 30.2131240604788474 35.9649610051700250
 35.7914654820495883 30.2131240604788474 38.8499566724111389
 35.7914654820495883 30.2131240604788474 41.7349523396522528
 38.7286043328068459 30.2131240604788474 12.8849956672411139
 38.7286043328068459 30.2131240604788474 15.7699913344822278
 38.7286043328068459 30.2131240604788474 18.6549870017233417
 38.7286043328068459 30.2131240604788474 21.5399826689644556
 38.7286043328068459 30.2131240604788474 24.4249783362055695
 38.7286043328068459 30.2131240604788474 27.3099740034466834
 38.7286043328068459 30.2131240604788474 30.1949696706877972
 38.7286043328068459 30.2131240604788474 33.0799653379289111
 38.7286043328068459 30.2131240604788474 35.9649610051700250
 38.7286043328068459 30.2131240604788474 38.8499566724111389
 38.7286043328068459 30.2131240604788474 41.7349523396522528
 39.6362301525297411 33.0065091037551923 12.8849956672411139
 39.6362301525297411 33.0065091037551923 15.7699913344822278
 39.6362301525297411 33.0065091037551923 18.6549870017233417
 39.6362301525297411 33.0065091037551923 21.5399826689644556
 39.6362301525297411 33.0065091037551923 24.4249783362055695
 39.6362301525297411 33.0065091037551923 27.3099740034466834
 39.6362301525297411 33.0065091037551923 30.1949696706877972
 39.6362301525297411 33.0065091037551923 33.0799653379289111
 39.6362301525297411 33.0065091037551923 35.9649610051700250
 39.6362301525297411 33.0065091037551923 38.8499566724111389
 39.6362301525297411 33.0065091037551923 41.7349523396522528
 42.9200512173541568 36.5719667842599989 14.3274935008616708
 42.9200512173541568 36.5719667842599989 17.2124891681027847
 42.9200512173541568 36.5719667842599989 20.0974848353438986
 42.9200512173541568 36.5719667842599989 22.9824805025850125
 42.9200512173541568 36.5719667842599989 25.8674761698261264
 42.9200512173541568 36.5719667842599989 28.7524718370672403
 42.9200512173541568 36.5719667842599989 31.6374675043083542
 42.9200512173541568 36.5719667842599989 34.5224631715494681
 42.9200512173541568 36.5719667842599989 37.4074588387905820
 42.9200512173541568 36.5719667842599989 40.2924545060316959
 40.5438559722526364 38.2983736846703806 14.3274935008616708
 40.5438559722526364 38.2983736846703806 17.2124891681027847
 40.5438559722526364 38.2983736846703806 20.0974848353438986
 40.5438559722526364 38.2983736846703806 22.9824805025850125
 40.5438559722526364 38.2983736846703806 25.8674761698261264
 40.5438559722526364 38.2983736846703806 28.7524718370672403
 40.5438559722526364 38.2983736846703806 31.6374675043083542
 40.5438559722526364 38.2983736846703806 34.5224631715494681
 40.5438559722526364 38.2983736846703806 37.4074588387905820
 40.5438559722526364 38.2983736846703806 40.2924545060316959
 38.1676607271511088 40.0247805850807623 14.3274935008616708
 38.1676607271511088 40.0247805850807623 17.2124891681027847
 38.1676607271511088 40.0247805850807623 20.0974848353438986
 38.1676607271511088 40.0247805850807623 22.9824805025850125
 38.1676607271511088 40.0247805850807623 25.8674761698261264
 38.1676607271511088 40.0247805850807623 28.7524718370672403
 38.1676607271511088 40.0247805850807623 31.6374675043083542
 38.1676607271511088 40.0247805850807623 34.5224631715494681
 38.1676607271511088 40.0247805850807623 37.4074588387905820
 38.1676607271511088 40.0247805850807623 40.2924545060316959
 35.7914654820495883 41.7511874854911369 14.3274935008616708
 35.7914654820495883 41.7511874854911369 17.2124891681027847
 35.7914654820495883 41.7511874854911369 20.0974848353438986
 35.7914654820495883 41.7511874854911369 22.9824805025850125
 35.7914654820495883 41.7511874854911369 25.8674761698261264
 35.7914654820495883 41.7511874854911369 28.7524718370672403
 35.7914654820495883 41.7511874854911369 31.6374675043083542
 35.7914654820495883 41.7511874854911369 34.5224631715494681
 35.7914654820495883 41.7511874854911369 37.4074588387905820
 35.7914654820495883 41.7511874854911369 40.2924545060316959
 33.4152702369480679 40.0247805850807623 14.3274935008616708
 33.4152702369480679 40.0247805850807623 17.2124891681027847
 33.4152702369480679 40.0247805850807623 20.0974848353438986
 33.4152702369480679 40.0247805850807623 22.9824805025850125
 33.4152702369480679 40.0247805850807623 25.8674761698261264
 33.4152702369480679 40.0247805850807623 28.7524718370672403
 33.4152702369480679 40.0247805850807623 31.6374675043083542
 33.4152702369480679 40.0247805850807623 34.5224631715494681
 33.4152702369480679 40.0247805850807623 37.4074588387905820
 33.4152702369480679 40.0247805850807623 40.2924545060316959
 31.0390749918465438 38.2983736846703806 14.3274935008616708
 31.0390749918465438 38.2983736846703806 17.2124891681027847
 31.0390749918465438 38.2983736846703806 20.0974848353438986
 31.0390749918465438 38.2983736846703806 22.9824805025850125
 31.0390749918465438 38.2983736846703806 25.8674761698261264
 31.0390749918465438 38.2983736846703806 28.7524718370672403
 31.0390749918465438 38.2983736846703806 31.6374675043083542
 31.0390749918465438 38.2983736846703806 34.5224631715494681
 31.0390749918465438 38.2983736846703806 37.4074588387905820
 31.0390749918465438 38.2983736846703806 40.2924545060316959
 28.6628797467450198 36.5719667842600060 14.3274935008616708
 28.6628797467450198 36.5719667842600060 17.2124891681027847
 28.6628797467450198 36.5719667842600060 20.0974848353438986
 28.6628797467450198 36.5719667842600060 22.9824805025850125
 28.6628797467450198 36.5719667842600060 25.8674761698261264
 28.6628797467450198 36.5719667842600060 28.7524718370672403
 28.6628797467450198 36.5719667842600060 31.6374675043083542
 28.6628797467450198 36.5719667842600060 34.5224631715494681
 28.6628797467450198 36.5719667842600060 37.4074588387905820
 28.6628797467450198 36.5719667842600060 40.2924545060316959
 29.5705055664679151 33.7785817409836540 14.3274935008616708
 29.5705055664679151 33.7785817409836540 17.2124891681027847
 29.5705055664679151 33.7785817409836540 20.0974848353438986
 29.5705055664679151 33.7785817409836540 22.9824805025850125
 29.5705055664679151 33.7785817409836540 25.8674761698261264
 29.5705055664679151 33.7785817409836540 28.7524718370672403
 29.5705055664679151 33.7785817409836540 31.6374675043083542
 29.5705055664679151 33.7785817409836540 34.5224631715494681
 29.5705055664679151 33.7785817409836540 37.4074588387905820
 29.5705055664679151 33.7785817409836540 40.2924545060316959
 30.4781313861908103 30.9851966977073090 14.3274935008616708
 30.4781313861908103 30.9851966977073090 17.2124891681027847
 30.4781313861908103 30.9851966977073090 20.0974848353438986
 30.4781313861908103 30.9851966977073090 22.9824805025850125
 30.4781313861908103 30.9851966977073090 25.8674761698261264
 30.4781313861908103 30.9851966977073090 28.7524718370672403
 30.4781313861908103 30.9851966977073090 31.6374675043083542
 30.4781313861908103 30.9851966977073090 34.5224631715494681
 30.4781313861908103 30.9851966977073090 37.4074588387905820
 30.4781313861908103 30.9851966977073090 40.2924545060316959
 31.3857572059137055 28.1918116544309640 14.3274935008616708
 31.3857572059137055 28.1918116544309640 17.2124891681027847
 31.3857572059137055 28.1918116544309640 20.0974848353438986
 31.3857572059137055 28.1918116544309640 22.9824805025850125
 31.3857572059137055 28.1918116544309640 25.8674761698261264
 31.3857572059137055 28.1918116544309640 28.7524718370672403
 31.3857572059137055 28.1918116544309640 31.6374675043083542
 31.3857572059137055 28.1918116544309640 34.5224631715494681
 31.3857572059137055 28.1918116544309640 37.4074588387905820
 31.3857572059137055 28.1918116544309640 40.2924545060316959
 34.3228960566709560 28.1918116544309640 14.3274935008616708
 34.3228960566709560 28.1918116544309640 17.2124891681027847
 34.3228960566709560 28.1918116544309640 20.0974848353438986
 34.3228960566709560 28.1918116544309640 22.9824805025850125
 34.3228960566709560 28.1918116544309640 25.8674761698261264
 34.3228960566709560 28.1918116544309640 28.7524718370672403
 34.3228960566709560 28.1918116544309640 31.6374675043083542
 34.3228960566709560 28.1918116544309640 34.5224631715494681
 34.3228960566709560 28.1918116544309640 37.4074588387905820
 34.3228960566709560 28.1918116544309640 40.2924545060316959
 37.2600349074282136 28.1918116544309640 14.3274935008616708
 37.2600349074282136 28.1918116544309640 17.2124891681027847
 37.2600349074282136 28.1918116544309640 20.0974848353438986
 37.2600349074282136 28.1918116544309640 22.9824805025850125
 37.2600349074282136 28.1918116544309640 25.8674761698261264
 37.2600349074282136 28.1918116544309640 28.7524718370672403
 37.2600349074282136 28.1918116544309640 31.6374675043083542
 37.2600349074282136 28.1918116544309640 34.5224631715494681
 37.2600349074282136 28.1918116544309640 37.4074588387905820
 37.2600349074282136 28.1918116544309640 40.2924545060316959
 40.1971737581854711 28.1918116544309605 14.3274935008616708
 40.1971737581854711 28.1918116544309605 17.2124891681027847
 40.1971737581854711 28.1918116544309605 20.0974848353438986
 40.1971737581854711 28.1918116544309605 22.9824805025850125
 40.1971737581854711 28.1918116544309605 25.8674761698261264
 40.1971737581854711 28.1918116544309605 28.7524718370672403
 40.1971737581854711 28.1918116544309605 31.6374675043083542
 40.1971737581854711 28.1918116544309605 34.5224631715494681
 40.1971737581854711 28.1918116544309605 37.4074588387905820
 40.1971737581854711 28.1918116544309605 40.2924545060316959
 41.1047995779083664 30.9851966977073090 14.3274935008616708
 41.1047995779083664 30.9851966977073090 17.2124891681027847
 41.1047995779083664 30.9851966977073090 20.0974848353438986
 41.1047995779083664 30.9851966977073090 22.9824805025850125
 41.1047995779083664 30.9851966977073090 25.8674761698261264
 41.1047995779083664 30.9851966977073090 28.7524718370672403
 41.1047995779083664 30.9851966977073090 31.6374675043083542
 41.1047995779083664 30.9851966977073090 34.5224631715494681
 41.1047995779083664 30.9851966977073090 37.4074588387905820
 41.1047995779083664 30.9851966977073090 40.2924545060316959
 42.0124253976312616 33.7785817409836540 14.3274935008616708
 42.0124253976312616 33.7785817409836540 17.2124891681027847
 42.0124253976312616 33.7785817409836540 20.0974848353438986
 42.0124253976312616 33.7785817409836540 22.9824805025850125
 42.0124253976312616 33.7785817409836540 25.8674761698261264
 42.0124253976312616 33.7785817409836540 28.7524718370672403
 42.0124253976312616 33.7785817409836540 31.6374675043083542
 42.0124253976312616 33.7785817409836540 34.5224631715494681
 42.0124253976312616 33.7785817409836540 37.4074588387905820
 42.0124253976312616 33.7785817409836540 40.2924545060316959
 45.2962464624556773 37.3440394214884606 15.7699913344822278
 45.2962464624556773 37.3440394214884606 18.6549870017233417
 45.2962464624556773 37.3440394214884606 21.5399826689644556
 45.2962464624556773 37.3440394214884606 24.4249783362055695
 45.2962464624556773 37.3440394214884606 27.3099740034466834
 45.2962464624556773 37.3440394214884606 30.1949696706877972
 45.2962464624556773 37.3440394214884606 33.0799653379289111
 45.2962464624556773 37.3440394214884606 35.9649610051700250
 45.2962464624556773 37.3440394214884606 38.8499566724111389
 42.9200512173541568 39.0704463218988423 15.7699913344822278
 42.9200512173541568 39.0704463218988423 18.6549870017233417
 42.9200512173541568 39.0704463218988423 21.5399826689644556
 42.9200512173541568 39.0704463218988423 24.4249783362055695
 42.9200512173541568 39.0704463218988423 27.3099740034466834
 42.9200512173541568 39.0704463218988423 30.1949696706877972
 42.9200512173541568 39.0704463218988423 33.0799653379289111
 42.9200512173541568 39.0704463218988423 35.9649610051700250
 42.9200512173541568 39.0704463218988423 38.8499566724111389
 40.5438559722526364 40.7968532223092240 15.7699913344822278
 40.5438559722526364 40.7968532223092240 18.6549870017233417
 40.5438559722526364 40.7968532223092240 21.5399826689644556
 40.5438559722526364 40.7968532223092240 24.4249783362055695
 40.5438559722526364 40.7968532223092240 27.3099740034466834
 40.5438559722526364 40.7968532223092240 30.1949696706877972
 40.5438559722526364 40.7968532223092240 33.0799653379289111
 40.5438559722526364 40.7968532223092240 35.9649610051700250
 40.5438559722526364 40.7968532223092240 38.8499566724111389
 38.1676607271511088 42.5232601227196056 15.7699913344822278
 38.1676607271511088 42.5232601227196056 18.6549870017233417
 38.1676607271511088 42.5232601227196056 21.5399826689644556
 38.1676607271511088 42.5232601227196056 24.4249783362055695
 38.1676607271511088 42.5232601227196056 27.3099740034466834
 38.1676607271511088 42.5232601227196056 30.1949696706877972
 38.1676607271511088 42.5232601227196056 33.0799653379289111
 38.1676607271511088 42.5232601227196056 35.9649610051700250
 38.1676607271511088 42.5232601227196056 38.8499566724111389
 35.7914654820495883 44.2496670231299802 15.7699913344822278
 35.7914654820495883 44.2496670231299802 18.6549870017233417
 35.7914654820495883 44.2496670231299802 21.5399826689644556
 35.7914654820495883 44.2496670231299802 24.4249783362055695
 35.7914654820495883 44.2496670231299802 27.3099740034466834
 35.7914654820495883 44.2496670231299802 30.1949696706877972
 35.7914654820495883 44.2496670231299802 33.0799653379289111
 35.7914654820495883 44.2496670231299802 35.9649610051700250
 35.7914654820495883 44.2496670231299802 38.8499566724111389
 33.4152702369480679 42.5232601227196056 15.7699913344822278
 33.4152702369480679 42.5232601227196056 18.6549870017233417
 33.4152702369480679 42.5232601227196056 21.5399826689644556
 33.4152702369480679 42.5232601227196056 24.4249783362055695
 33.4152702369480679 42.5232601227196056 27.3099740034466834
 33.4152702369480679 42.5232601227196056 30.1949696706877972
 33.4152702369480679 42.5232601227196056 33.0799653379289111
 33.4152702369480679 42.5232601227196056 35.9649610051700250
 33.4152702369480679 42.5232601227196056 38.8499566724111389
 31.0390749918465438 40.7968532223092240 15.7699913344822278
 31.0390749918465438 40.7968532223092240 18.6549870017233417
 31.0390749918465438 40.7968532223092240 21.5399826689644556
 31.0390749918465438 40.7968532223092240 24.4249783362055695
 31.0390749918465438 40.7968532223092240 27.3099740034466834
 31.0390749918465438 40.7968532223092240 30.1949696706877972
 31.0390749918465438 40.7968532223092240 33.0799653379289111
 31.0390749918465438 40.7968532223092240 35.9649610051700250
 31.0390749918465438 40.7968532223092240 38.8499566724111389
 28.6628797467450198 39.0704463218988423 15.7699913344822278
 28.6628797467450198 39.0704463218988423 18.6549870017233417
 28.6628797467450198 39.0704463218988423 21.5399826689644556
 28.6628797467450198 39.0704463218988423 24.4249783362055695
 28.6628797467450198 39.0704463218988423 27.3099740034466834
 28.6628797467450198 39.0704463218988423 30.1949696706877972
 28.6628797467450198 39.0704463218988423 33.0799653379289111
 28.6628797467450198 39.0704463218988423 35.9649610051700250
 28.6628797467450198 39.0704463218988423 38.8499566724111389
 26.2866845016434993 37.3440394214884677 15.7699913344822278
 26.2866845016434993 37.3440394214884677 18.6549870017233417
 26.2866845016434993 37.3440394214884677 21.5399826689644556
 26.2866845016434993 37.3440394214884677 24.4249783362055695
 26.2866845016434993 37.3440394214884677 27.3099740034466834
 26.2866845016434993 37.3440394214884677 30.1949696706877972
 26.2866845016434993 37.3440394214884677 33.0799653379289111
 26.2866845016434993 37.3440394214884677 35.9649610051700250
 26.2866845016434993 37.3440394214884677 38.8499566724111389
 27.1943103213663910 34.5506543782121227 15.7699913344822278
 27.1943103213663910 34.5506543782121227 18.6549870017233417
 27.1943103213663910 34.5506543782121227 21.5399826689644556
 27.1943103213663910 34.5506543782121227 24.4249783362055695
 27.1943103213663910 34.5506543782121227 27.3099740034466834
 27.1943103213663910 34.5506543782121227 30.1949696706877972
 27.1943103213663910 34.5506543782121227 33.0799653379289111
 27.1943103213663910 34.5506543782121227 35.9649610051700250
 27.1943103213663910 34.5506543782121227 38.8499566724111389
 28.1019361410892863 31.7572693349357742 15.7699913344822278
 28.1019361410892863 31.7572693349357742 18.6549870017233417
 28.1019361410892863 31.7572693349357742 21.5399826689644556
 28.1019361410892863 31.7572693349357742 24.4249783362055695
 28.1019361410892863 31.7572693349357742 27.3099740034466834
 28.1019361410892863 31.7572693349357742 30.1949696706877972
 28.1019361410892863 31.7572693349357742 33.0799653379289111
 28.1019361410892863 31.7572693349357742 35.9649610051700250
 28.1019361410892863 31.7572693349357742 38.8499566724111389
 29.0095619608121815 28.9638842916594257 15.7699913344822278
 29.0095619608121815 28.9638842916594257 18.6549870017233417
 29.0095619608121815 28.9638842916594257 21.5399826689644556
 29.0095619608121815 28.9638842916594257 24.4249783362055695
 29.0095619608121815 28.9638842916594257 27.3099740034466834
 29.0095619608121815 28.9638842916594257 30.1949696706877972
 29.0095619608121815 28.9638842916594257 33.0799653379289111
 29.0095619608121815 28.9638842916594257 35.9649610051700250
 29.0095619608121815 28.9638842916594257 38.8499566724111389
 29.9171877805350732 26.1704992483830807 15.7699913344822278
 29.9171877805350732 26.1704992483830807 18.6549870017233417
 29.9171877805350732 26.1704992483830807 21.5399826689644556
 29.9171877805350732 26.1704992483830807 24.4249783362055695
 29.9171877805350732 26.1704992483830807 27.3099740034466834
 29.9171877805350732 26.1704992483830807 30.1949696706877972
 29.9171877805350732 26.1704992483830807 33.0799653379289111
 29.9171877805350732 26.1704992483830807 35.9649610051700250
 29.9171877805350732 26.1704992483830807 38.8499566724111389
 32.8543266312923308 26.1704992483830772 15.7699913344822278
 32.8543266312923308 26.1704992483830772 18.6549870017233417
 32.8543266312923308 26.1704992483830772 21.5399826689644556
 32.8543266312923308 26.1704992483830772 24.4249783362055695
 32.8543266312923308 26.1704992483830772 27.3099740034466834
 32.8543266312923308 26.1704992483830772 30.1949696706877972
 32.8543266312923308 26.1704992483830772 33.0799653379289111
 32.8543266312923308 26.1704992483830772 35.9649610051700250
 32.8543266312923308 26.1704992483830772 38.8499566724111389
 35.7914654820495883 26.1704992483830772 15.7699913344822278
 35.7914654820495883 26.1704992483830772 18.6549870017233417
 35.7914654820495883 26.1704992483830772 21.5399826689644556
 35.7914654820495883 26.1704992483830772 24.4249783362055695
 35.7914654820495883 26.1704992483830772 27.3099740034466834
 35.7914654820495883 26.1704992483830772 30.1949696706877972
 35.7914654820495883 26.1704992483830772 33.0799653379289111
 35.7914654820495883 26.1704992483830772 35.9649610051700250
 35.7914654820495883 26.1704992483830772 38.8499566724111389
 38.7286043328068459 26.1704992483830772 15.7699913344822278
 38.7286043328068459 26.1704992483830772 18.6549870017233417
 38.7286043328068459 26.1704992483830772 21.5399826689644556
 38.7286043328068459 26.1704992483830772 24.4249783362055695
 38.7286043328068459 26.1704992483830772 27.3099740034466834
 38.7286043328068459 26.1704992483830772 30.1949696706877972
 38.7286043328068459 26.1704992483830772 33.0799653379289111
 38.7286043328068459 26.1704992483830772 35.9649610051700250
 38.7286043328068459 26.1704992483830772 38.8499566724111389
 41.6657431835640963 26.1704992483830772 15.7699913344822278
 41.6657431835640963 26.1704992483830772 18.6549870017233417
 41.6657431835640963 26.1704992483830772 21.5399826689644556
 41.6657431835640963 26.1704992483830772 24.4249783362055695
 41.6657431835640963 26.1704992483830772 27.3099740034466834
 41.6657431835640963 26.1704992483830772 30.1949696706877972
 41.6657431835640963 26.1704992483830772 33.0799653379289111
 41.6657431835640963 26.1704992483830772 35.9649610051700250
 41.6657431835640963 26.1704992483830772 38.8499566724111389
 42.5733690032869916 28.9638842916594257 15.7699913344822278