Au 
 1.0000000000000000
    24.7523904902030445    0.0000000000000000    0.0000000000000000
     0.0000000000000000   24.5197919436867267    0.0000000000000000
     0.0000000000000000    0.0000000000000000   34.4249783362055695
 Au 
  31
Cartesian
 12.3761952451015222 12.0213124060478833 10.0000000000000000
 12.3761952451015222 12.0213124060478833 12.8849956672411139
 12.3761952451015222 12.0213124060478833 15.7699913344822278
 12.3761952451015222 12.0213124060478833 18.6549870017233417
 12.3761952451015222 12.0213124060478833 21.5399826689644556
 12.3761952451015222 12.0213124060478833 24.4249783362055695
 14.7523904902030445 12.7933850432763450 11.4424978336205569
 14.7523904902030445 12.7933850432763450 14.3274935008616708
 14.7523904902030445 12.7933850432763450 17.2124891681027847
 14.7523904902030445 12.7933850432763450 20.0974848353438986
 14.7523904902030445 12.7933850432763450 22.9824805025850125
 12.3761952451015222 14.5197919436867249 11.4424978336205569
 12.3761952451015222 14.5197919436867249 14.3274935008616708
 12.3761952451015222 14.5197919436867249 17.2124891681027847
 12.3761952451015222 14.5197919436867249 20.0974848353438986
 12.3761952451015222 14.5197919436867249 22.9824805025850125
 10.0000000000000000 12.7933850432763467 11.4424978336205569
 10.0000000000000000 12.7933850432763467 14.3274935008616708
 10.0000000000000000 12.7933850432763467 17.2124891681027847
 10.0000000000000000 12.7933850432763467 20.0974848353438986
 10.0000000000000000 12.7933850432763467 22.9824805025850125
 10.9076258197228935 10.0000000000000000 11.4424978336205569
 10.9076258197228935 10.0000000000000000 14.3274935008616708
 10.9076258197228935 10.0000000000000000 17.2124891681027847
 10.9076258197228935 10.0000000000000000 20.0974848353438986
 10.9076258197228935 10.0000000000000000 22.9824805025850125
 13.8447646704801492 10.0000000000000000 11.4424978336205569
 13.8447646704801492 10.0000000000000000 14.3274935008616708
 13.8447646704801492 10.0000000000000000 17.2124891681027847
 13.8447646704801492 10.0000000000000000 20.0974848353438986
 13.8447646704801492 10.0000000000000000 22.9824805025850125
