Pt 
 1.0000000000000000
    31.9540014064118409    0.0000000000000000    0.0000000000000000
     0.0000000000000000   31.3689309333694126    0.0000000000000000
     0.0000000000000000    0.0000000000000000   31.0874343290050632
 Pt 
  75
Cartesian
 15.9770007032059205 15.8261357586086078 10.0000000000000000
 15.9770007032059205 15.8261357586086078 12.7718585822512658
 15.9770007032059205 15.8261357586086078 15.5437171645025316
 15.9770007032059205 15.8261357586086078 18.3155757467537974
 15.9770007032059205 15.8261357586086078 21.0874343290050632
 18.2600118210485611 16.5679310375143842 11.3859292911256311
 18.2600118210485611 16.5679310375143842 14.1577878733768987
 18.2600118210485611 16.5679310375143842 16.9296464556281663
 18.2600118210485611 16.5679310375143842 19.7015050378794321
 15.9770007032059205 18.2266357065361220 11.3859292911256311
 15.9770007032059205 18.2266357065361220 14.1577878733768987
 15.9770007032059205 18.2266357065361220 16.9296464556281663
 15.9770007032059205 18.2266357065361220 19.7015050378794321
 13.6939895853632816 16.5679310375143878 11.3859292911256311
 13.6939895853632816 16.5679310375143878 14.1577878733768987
 13.6939895853632816 16.5679310375143878 16.9296464556281663
 13.6939895853632816 16.5679310375143878 19.7015050378794321
 14.5660222356852778 13.8840905057390724 11.3859292911256311
 14.5660222356852778 13.8840905057390724 14.1577878733768987
 14.5660222356852778 13.8840905057390724 16.9296464556281663
 14.5660222356852778 13.8840905057390724 19.7015050378794321
 17.3879791707265632 13.8840905057390724 11.3859292911256311
 17.3879791707265632 13.8840905057390724 14.1577878733768987
 17.3879791707265632 13.8840905057390724 16.9296464556281663
 17.3879791707265632 13.8840905057390724 19.7015050378794321
 20.5430229388911982 17.3097263164201642 12.7718585822512658
 20.5430229388911982 17.3097263164201642 15.5437171645025316
 20.5430229388911982 17.3097263164201642 18.3155757467537974
 18.2600118210485611 18.9684309854418984 12.7718585822512658
 18.2600118210485611 18.9684309854418984 15.5437171645025316
 18.2600118210485611 18.9684309854418984 18.3155757467537974
 15.9770007032059205 20.6271356544636362 12.7718585822512658
 15.9770007032059205 20.6271356544636362 15.5437171645025316
 15.9770007032059205 20.6271356544636362 18.3155757467537974
 13.6939895853632816 18.9684309854418984 12.7718585822512658
 13.6939895853632816 18.9684309854418984 15.5437171645025316
 13.6939895853632816 18.9684309854418984 18.3155757467537974
 11.4109784675206427 17.3097263164201642 12.7718585822512658
 11.4109784675206427 17.3097263164201642 15.5437171645025316
 11.4109784675206427 17.3097263164201642 18.3155757467537974
 12.2830111178426371 14.6258857846448507 12.7718585822512658
 12.2830111178426371 14.6258857846448507 15.5437171645025316
 12.2830111178426371 14.6258857846448507 18.3155757467537974
 13.1550437681646351 11.9420452528695371 12.7718585822512658
 13.1550437681646351 11.9420452528695371 15.5437171645025316
 13.1550437681646351 11.9420452528695371 18.3155757467537974
 15.9770007032059205 11.9420452528695371 12.7718585822512658
 15.9770007032059205 11.9420452528695371 15.5437171645025316
 15.9770007032059205 11.9420452528695371 18.3155757467537974
 18.7989576382472059 11.9420452528695371 12.7718585822512658
 18.7989576382472059 11.9420452528695371 15.5437171645025316
 18.7989576382472059 11.9420452528695371 18.3155757467537974
 19.6709902885692003 14.6258857846448507 12.7718585822512658
 19.6709902885692003 14.6258857846448507 15.5437171645025316
 19.6709902885692003 14.6258857846448507 18.3155757467537974
 20.5430229388911982 19.7102262643476784 14.1577878733768987
 20.5430229388911982 19.7102262643476784 16.9296464556281663
 18.2600118210485611 21.3689309333694126 14.1577878733768987
 18.2600118210485611 21.3689309333694126 16.9296464556281663
 13.6939895853632816 21.3689309333694126 14.1577878733768987
 13.6939895853632816 21.3689309333694126 16.9296464556281663
 11.4109784675206427 19.7102262643476784 14.1577878733768987
 11.4109784675206427 19.7102262643476784 16.9296464556281663
 10.0000000000000000 15.3676810635506289 14.1577878733768987
 10.0000000000000000 15.3676810635506289 16.9296464556281663
 10.8720326503219944 12.6838405317753171 14.1577878733768987
 10.8720326503219944 12.6838405317753171 16.9296464556281663
 14.5660222356852760 10.0000000000000018 14.1577878733768987
 14.5660222356852760 10.0000000000000018 16.9296464556281663
 17.3879791707265632 10.0000000000000000 14.1577878733768987
 17.3879791707265632 10.0000000000000000 16.9296464556281663
 21.0819687560898430 12.6838405317753136 14.1577878733768987
 21.0819687560898430 12.6838405317753136 16.9296464556281663
 21.9540014064118409 15.3676810635506271 14.1577878733768987
 21.9540014064118409 15.3676810635506271 16.9296464556281663
