Pt 
 1.0000000000000000
    29.1320444713705555    0.0000000000000000    0.0000000000000000
     0.0000000000000000   28.6850904015940991    0.0000000000000000
     0.0000000000000000    0.0000000000000000   39.4030100757588642
 Pt 
 103
Cartesian
 14.5660222356852778 13.8840905057390707 10.0000000000000000
 14.5660222356852778 13.8840905057390707 12.7718585822512658
 14.5660222356852778 13.8840905057390707 15.5437171645025316
 14.5660222356852778 13.8840905057390707 18.3155757467538010
 14.5660222356852778 13.8840905057390707 21.0874343290050632
 14.5660222356852778 13.8840905057390707 23.8592929112563326
 14.5660222356852778 13.8840905057390707 26.6311514935075984
 14.5660222356852778 13.8840905057390707 29.4030100757588642
 16.8490333535279184 14.6258857846448489 11.3859292911256329
 16.8490333535279184 14.6258857846448489 14.1577878733768987
 16.8490333535279184 14.6258857846448489 16.9296464556281663
 16.8490333535279184 14.6258857846448489 19.7015050378794321
 16.8490333535279184 14.6258857846448489 22.4733636201306979
 16.8490333535279184 14.6258857846448489 25.2452222023819637
 16.8490333535279184 14.6258857846448489 28.0170807846332295
 14.5660222356852778 16.2845904536665849 11.3859292911256329
 14.5660222356852778 16.2845904536665849 14.1577878733768987
 14.5660222356852778 16.2845904536665849 16.9296464556281663
 14.5660222356852778 16.2845904536665849 19.7015050378794321
 14.5660222356852778 16.2845904536665849 22.4733636201306979
 14.5660222356852778 16.2845904536665849 25.2452222023819637
 14.5660222356852778 16.2845904536665849 28.0170807846332295
 12.2830111178426389 14.6258857846448489 11.3859292911256329
 12.2830111178426389 14.6258857846448489 14.1577878733768987
 12.2830111178426389 14.6258857846448489 16.9296464556281663
 12.2830111178426389 14.6258857846448489 19.7015050378794321
 12.2830111178426389 14.6258857846448489 22.4733636201306979
 12.2830111178426389 14.6258857846448489 25.2452222023819637
 12.2830111178426389 14.6258857846448489 28.0170807846332295
 13.1550437681646351 11.9420452528695353 11.3859292911256329
 13.1550437681646351 11.9420452528695353 14.1577878733768987
 13.1550437681646351 11.9420452528695353 16.9296464556281663
 13.1550437681646351 11.9420452528695353 19.7015050378794321
 13.1550437681646351 11.9420452528695353 22.4733636201306979
 13.1550437681646351 11.9420452528695353 25.2452222023819637
 13.1550437681646351 11.9420452528695353 28.0170807846332295
 15.9770007032059205 11.9420452528695353 11.3859292911256329
 15.9770007032059205 11.9420452528695353 14.1577878733768987
 15.9770007032059205 11.9420452528695353 16.9296464556281663
 15.9770007032059205 11.9420452528695353 19.7015050378794321
 15.9770007032059205 11.9420452528695353 22.4733636201306979
 15.9770007032059205 11.9420452528695353 25.2452222023819637
 15.9770007032059205 11.9420452528695353 28.0170807846332295
 19.1320444713705555 15.3676810635506254 12.7718585822512658
 19.1320444713705555 15.3676810635506254 15.5437171645025334
 19.1320444713705555 15.3676810635506254 18.3155757467538010
 19.1320444713705555 15.3676810635506254 21.0874343290050668
 19.1320444713705555 15.3676810635506254 23.8592929112563326
 19.1320444713705555 15.3676810635506254 26.6311514935075984
 16.8490333535279184 17.0263857325723613 12.7718585822512658
 16.8490333535279184 17.0263857325723613 15.5437171645025334
 16.8490333535279184 17.0263857325723613 18.3155757467538010
 16.8490333535279184 17.0263857325723613 21.0874343290050668
 16.8490333535279184 17.0263857325723613 23.8592929112563326
 16.8490333535279184 17.0263857325723613 26.6311514935075984
 14.5660222356852778 18.6850904015940991 12.7718585822512658
 14.5660222356852778 18.6850904015940991 15.5437171645025334
 14.5660222356852778 18.6850904015940991 18.3155757467538010
 14.5660222356852778 18.6850904015940991 21.0874343290050668
 14.5660222356852778 18.6850904015940991 23.8592929112563326
 14.5660222356852778 18.6850904015940991 26.6311514935075984
 12.2830111178426389 17.0263857325723649 12.7718585822512658
 12.2830111178426389 17.0263857325723649 15.5437171645025334
 12.2830111178426389 17.0263857325723649 18.3155757467538010
 12.2830111178426389 17.0263857325723649 21.0874343290050668
 12.2830111178426389 17.0263857325723649 23.8592929112563326
 12.2830111178426389 17.0263857325723649 26.6311514935075984
 10.0000000000000000 15.3676810635506271 12.7718585822512658
 10.0000000000000000 15.3676810635506271 15.5437171645025334
 10.0000000000000000 15.3676810635506271 18.3155757467538010
 10.0000000000000000 15.3676810635506271 21.0874343290050668
 10.0000000000000000 15.3676810635506271 23.8592929112563326
 10.0000000000000000 15.3676810635506271 26.6311514935075984
 10.8720326503219944 12.6838405317753136 12.7718585822512658
 10.8720326503219944 12.6838405317753136 15.5437171645025334
 10.8720326503219944 12.6838405317753136 18.3155757467538010
 10.8720326503219944 12.6838405317753136 21.0874343290050668
 10.8720326503219944 12.6838405317753136 23.8592929112563326
 10.8720326503219944 12.6838405317753136 26.6311514935075984
 11.7440653006439923 10.0000000000000000 12.7718585822512658
 11.7440653006439923 10.0000000000000000 15.5437171645025334
 11.7440653006439923 10.0000000000000000 18.3155757467538010
 11.7440653006439923 10.0000000000000000 21.0874343290050668
 11.7440653006439923 10.0000000000000000 23.8592929112563326
 11.7440653006439923 10.0000000000000000 26.6311514935075984
 14.5660222356852778 10.0000000000000000 12.7718585822512658
 14.5660222356852778 10.0000000000000000 15.5437171645025334
 14.5660222356852778 10.0000000000000000 18.3155757467538010
 14.5660222356852778 10.0000000000000000 21.0874343290050668
 14.5660222356852778 10.0000000000000000 23.8592929112563326
 14.5660222356852778 10.0000000000000000 26.6311514935075984
 17.3879791707265632 10.0000000000000000 12.7718585822512658
 17.3879791707265632 10.0000000000000000 15.5437171645025334
 17.3879791707265632 10.0000000000000000 18.3155757467538010
 17.3879791707265632 10.0000000000000000 21.0874343290050668
 17.3879791707265632 10.0000000000000000 23.8592929112563326
 17.3879791707265632 10.0000000000000000 26.6311514935075984
 18.2600118210485576 12.6838405317753136 12.7718585822512658
 18.2600118210485576 12.6838405317753136 15.5437171645025334
 18.2600118210485576 12.6838405317753136 18.3155757467538010
 18.2600118210485576 12.6838405317753136 21.0874343290050668
 18.2600118210485576 12.6838405317753136 23.8592929112563326
 18.2600118210485576 12.6838405317753136 26.6311514935075984
