Pt 
 1.0000000000000000
    50.2180903491529591    0.0000000000000000    0.0000000000000000
     0.0000000000000000   48.7391117365576179    0.0000000000000000
     0.0000000000000000    0.0000000000000000   39.4030100757588642
 Pt 
 423
Cartesian
 25.1090451745764796 23.5943167700867527 10.0000000000000000
 25.1090451745764796 23.5943167700867527 12.7718585822512658
 25.1090451745764796 23.5943167700867527 15.5437171645025316
 25.1090451745764796 23.5943167700867527 18.3155757467538010
 25.1090451745764796 23.5943167700867527 21.0874343290050632
 25.1090451745764796 23.5943167700867527 23.8592929112563326
 25.1090451745764796 23.5943167700867527 26.6311514935075984
 25.1090451745764796 23.5943167700867527 29.4030100757588642
 27.3920562924191202 24.3361120489925291 11.3859292911256329
 27.3920562924191202 24.3361120489925291 14.1577878733768987
 27.3920562924191202 24.3361120489925291 16.9296464556281663
 27.3920562924191202 24.3361120489925291 19.7015050378794321
 27.3920562924191202 24.3361120489925291 22.4733636201306979
 27.3920562924191202 24.3361120489925291 25.2452222023819637
 27.3920562924191202 24.3361120489925291 28.0170807846332295
 25.1090451745764796 25.9948167180142669 11.3859292911256329
 25.1090451745764796 25.9948167180142669 14.1577878733768987
 25.1090451745764796 25.9948167180142669 16.9296464556281663
 25.1090451745764796 25.9948167180142669 19.7015050378794321
 25.1090451745764796 25.9948167180142669 22.4733636201306979
 25.1090451745764796 25.9948167180142669 25.2452222023819637
 25.1090451745764796 25.9948167180142669 28.0170807846332295
 22.8260340567338389 24.3361120489925327 11.3859292911256329
 22.8260340567338389 24.3361120489925327 14.1577878733768987
 22.8260340567338389 24.3361120489925327 16.9296464556281663
 22.8260340567338389 24.3361120489925327 19.7015050378794321
 22.8260340567338389 24.3361120489925327 22.4733636201306979
 22.8260340567338389 24.3361120489925327 25.2452222023819637
 22.8260340567338389 24.3361120489925327 28.0170807846332295
 23.6980667070558368 21.6522715172172191 11.3859292911256329
 23.6980667070558368 21.6522715172172191 14.1577878733768987
 23.6980667070558368 21.6522715172172191 16.9296464556281663
 23.6980667070558368 21.6522715172172191 19.7015050378794321
 23.6980667070558368 21.6522715172172191 22.4733636201306979
 23.6980667070558368 21.6522715172172191 25.2452222023819637
 23.6980667070558368 21.6522715172172191 28.0170807846332295
 26.5200236420971223 21.6522715172172155 11.3859292911256329
 26.5200236420971223 21.6522715172172155 14.1577878733768987
 26.5200236420971223 21.6522715172172155 16.9296464556281663
 26.5200236420971223 21.6522715172172155 19.7015050378794321
 26.5200236420971223 21.6522715172172155 22.4733636201306979
 26.5200236420971223 21.6522715172172155 25.2452222023819637
 26.5200236420971223 21.6522715172172155 28.0170807846332295
 29.6750674102617573 25.0779073278983091 12.7718585822512658
 29.6750674102617573 25.0779073278983091 15.5437171645025334
 29.6750674102617573 25.0779073278983091 18.3155757467538010
 29.6750674102617573 25.0779073278983091 21.0874343290050668
 29.6750674102617573 25.0779073278983091 23.8592929112563326
 29.6750674102617573 25.0779073278983091 26.6311514935075984
 27.3920562924191202 26.7366119969200433 12.7718585822512658
 27.3920562924191202 26.7366119969200433 15.5437171645025334
 27.3920562924191202 26.7366119969200433 18.3155757467538010
 27.3920562924191202 26.7366119969200433 21.0874343290050668
 27.3920562924191202 26.7366119969200433 23.8592929112563326
 27.3920562924191202 26.7366119969200433 26.6311514935075984
 25.1090451745764796 28.3953166659417811 12.7718585822512658
 25.1090451745764796 28.3953166659417811 15.5437171645025334
 25.1090451745764796 28.3953166659417811 18.3155757467538010
 25.1090451745764796 28.3953166659417811 21.0874343290050668
 25.1090451745764796 28.3953166659417811 23.8592929112563326
 25.1090451745764796 28.3953166659417811 26.6311514935075984
 22.8260340567338389 26.7366119969200469 12.7718585822512658
 22.8260340567338389 26.7366119969200469 15.5437171645025334
 22.8260340567338389 26.7366119969200469 18.3155757467538010
 22.8260340567338389 26.7366119969200469 21.0874343290050668
 22.8260340567338389 26.7366119969200469 23.8592929112563326
 22.8260340567338389 26.7366119969200469 26.6311514935075984
 20.5430229388912018 25.0779073278983091 12.7718585822512658
 20.5430229388912018 25.0779073278983091 15.5437171645025334
 20.5430229388912018 25.0779073278983091 18.3155757467538010
 20.5430229388912018 25.0779073278983091 21.0874343290050668
 20.5430229388912018 25.0779073278983091 23.8592929112563326
 20.5430229388912018 25.0779073278983091 26.6311514935075984
 21.4150555892131962 22.3940667961229956 12.7718585822512658
 21.4150555892131962 22.3940667961229956 15.5437171645025334
 21.4150555892131962 22.3940667961229956 18.3155757467538010
 21.4150555892131962 22.3940667961229956 21.0874343290050668
 21.4150555892131962 22.3940667961229956 23.8592929112563326
 21.4150555892131962 22.3940667961229956 26.6311514935075984
 22.2870882395351941 19.7102262643476820 12.7718585822512658
 22.2870882395351941 19.7102262643476820 15.5437171645025334
 22.2870882395351941 19.7102262643476820 18.3155757467538010
 22.2870882395351941 19.7102262643476820 21.0874343290050668
 22.2870882395351941 19.7102262643476820 23.8592929112563326
 22.2870882395351941 19.7102262643476820 26.6311514935075984
 25.1090451745764796 19.7102262643476820 12.7718585822512658
 25.1090451745764796 19.7102262643476820 15.5437171645025334
 25.1090451745764796 19.7102262643476820 18.3155757467538010
 25.1090451745764796 19.7102262643476820 21.0874343290050668
 25.1090451745764796 19.7102262643476820 23.8592929112563326
 25.1090451745764796 19.7102262643476820 26.6311514935075984
 27.9310021096177650 19.7102262643476820 12.7718585822512658
 27.9310021096177650 19.7102262643476820 15.5437171645025334
 27.9310021096177650 19.7102262643476820 18.3155757467538010
 27.9310021096177650 19.7102262643476820 21.0874343290050668
 27.9310021096177650 19.7102262643476820 23.8592929112563326
 27.9310021096177650 19.7102262643476820 26.6311514935075984
 28.8030347599397629 22.3940667961229956 12.7718585822512658
 28.8030347599397629 22.3940667961229956 15.5437171645025334
 28.8030347599397629 22.3940667961229956 18.3155757467538010
 28.8030347599397629 22.3940667961229956 21.0874343290050668
 28.8030347599397629 22.3940667961229956 23.8592929112563326
 28.8030347599397629 22.3940667961229956 26.6311514935075984
 31.9580785281043980 25.8197026068040856 14.1577878733769005
 31.9580785281043980 25.8197026068040856 16.9296464556281663
 31.9580785281043980 25.8197026068040856 19.7015050378794321
 31.9580785281043980 25.8197026068040856 22.4733636201306979
 31.9580785281043980 25.8197026068040856 25.2452222023819637
 29.6750674102617573 27.4784072758258233 14.1577878733769005
 29.6750674102617573 27.4784072758258233 16.9296464556281663
 29.6750674102617573 27.4784072758258233 19.7015050378794321
 29.6750674102617573 27.4784072758258233 22.4733636201306979
 29.6750674102617573 27.4784072758258233 25.2452222023819637
 27.3920562924191202 29.1371119448475575 14.1577878733769005
 27.3920562924191202 29.1371119448475575 16.9296464556281663
 27.3920562924191202 29.1371119448475575 19.7015050378794321
 27.3920562924191202 29.1371119448475575 22.4733636201306979
 27.3920562924191202 29.1371119448475575 25.2452222023819637
 25.1090451745764796 30.7958166138692953 14.1577878733769005
 25.1090451745764796 30.7958166138692953 16.9296464556281663
 25.1090451745764796 30.7958166138692953 19.7015050378794321
 25.1090451745764796 30.7958166138692953 22.4733636201306979
 25.1090451745764796 30.7958166138692953 25.2452222023819637
 22.8260340567338389 29.1371119448475611 14.1577878733769005
 22.8260340567338389 29.1371119448475611 16.9296464556281663
 22.8260340567338389 29.1371119448475611 19.7015050378794321
 22.8260340567338389 29.1371119448475611 22.4733636201306979
 22.8260340567338389 29.1371119448475611 25.2452222023819637
 20.5430229388912018 27.4784072758258233 14.1577878733769005
 20.5430229388912018 27.4784072758258233 16.9296464556281663
 20.5430229388912018 27.4784072758258233 19.7015050378794321
 20.5430229388912018 27.4784072758258233 22.4733636201306979
 20.5430229388912018 27.4784072758258233 25.2452222023819637
 18.2600118210485611 25.8197026068040891 14.1577878733769005
 18.2600118210485611 25.8197026068040891 16.9296464556281663
 18.2600118210485611 25.8197026068040891 19.7015050378794321
 18.2600118210485611 25.8197026068040891 22.4733636201306979
 18.2600118210485611 25.8197026068040891 25.2452222023819637
 19.1320444713705591 23.1358620750287756 14.1577878733769005
 19.1320444713705591 23.1358620750287756 16.9296464556281663
 19.1320444713705591 23.1358620750287756 19.7015050378794321
 19.1320444713705591 23.1358620750287756 22.4733636201306979
 19.1320444713705591 23.1358620750287756 25.2452222023819637
 20.0040771216925535 20.4520215432534620 14.1577878733769005
 20.0040771216925535 20.4520215432534620 16.9296464556281663
 20.0040771216925535 20.4520215432534620 19.7015050378794321
 20.0040771216925535 20.4520215432534620 22.4733636201306979
 20.0040771216925535 20.4520215432534620 25.2452222023819637
 20.8761097720145514 17.7681810114781484 14.1577878733769005
 20.8761097720145514 17.7681810114781484 16.9296464556281663
 20.8761097720145514 17.7681810114781484 19.7015050378794321
 20.8761097720145514 17.7681810114781484 22.4733636201306979
 20.8761097720145514 17.7681810114781484 25.2452222023819637
 23.6980667070558368 17.7681810114781484 14.1577878733769005
 23.6980667070558368 17.7681810114781484 16.9296464556281663
 23.6980667070558368 17.7681810114781484 19.7015050378794321
 23.6980667070558368 17.7681810114781484 22.4733636201306979
 23.6980667070558368 17.7681810114781484 25.2452222023819637
 26.5200236420971223 17.7681810114781449 14.1577878733769005
 26.5200236420971223 17.7681810114781449 16.9296464556281663
 26.5200236420971223 17.7681810114781449 19.7015050378794321
 26.5200236420971223 17.7681810114781449 22.4733636201306979
 26.5200236420971223 17.7681810114781449 25.2452222023819637
 29.3419805771384077 17.7681810114781449 14.1577878733769005
 29.3419805771384077 17.7681810114781449 16.9296464556281663
 29.3419805771384077 17.7681810114781449 19.7015050378794321
 29.3419805771384077 17.7681810114781449 22.4733636201306979
 29.3419805771384077 17.7681810114781449 25.2452222023819637
 30.2140132274604021 20.4520215432534584 14.1577878733769005
 30.2140132274604021 20.4520215432534584 16.9296464556281663
 30.2140132274604021 20.4520215432534584 19.7015050378794321
 30.2140132274604021 20.4520215432534584 22.4733636201306979
 30.2140132274604021 20.4520215432534584 25.2452222023819637
 31.0860458777824000 23.1358620750287720 14.1577878733769005
 31.0860458777824000 23.1358620750287720 16.9296464556281663
 31.0860458777824000 23.1358620750287720 19.7015050378794321
 31.0860458777824000 23.1358620750287720 22.4733636201306979
 31.0860458777824000 23.1358620750287720 25.2452222023819637
 34.2410896459470351 26.5614978857098620 15.5437171645025316
 34.2410896459470351 26.5614978857098620 18.3155757467537974
 34.2410896459470351 26.5614978857098620 21.0874343290050632
 34.2410896459470351 26.5614978857098620 23.8592929112563326
 31.9580785281043980 28.2202025547315998 15.5437171645025316
 31.9580785281043980 28.2202025547315998 18.3155757467537974
 31.9580785281043980 28.2202025547315998 21.0874343290050632
 31.9580785281043980 28.2202025547315998 23.8592929112563326
 29.6750674102617573 29.8789072237533375 15.5437171645025316
 29.6750674102617573 29.8789072237533375 18.3155757467537974
 29.6750674102617573 29.8789072237533375 21.0874343290050632
 29.6750674102617573 29.8789072237533375 23.8592929112563326
 27.3920562924191202 31.5376118927750717 15.5437171645025316
 27.3920562924191202 31.5376118927750717 18.3155757467537974
 27.3920562924191202 31.5376118927750717 21.0874343290050632
 27.3920562924191202 31.5376118927750717 23.8592929112563326
 25.1090451745764796 33.1963165617968059 15.5437171645025316
 25.1090451745764796 33.1963165617968059 18.3155757467537974
 25.1090451745764796 33.1963165617968059 21.0874343290050632
 25.1090451745764796 33.1963165617968059 23.8592929112563326
 22.8260340567338389 31.5376118927750753 15.5437171645025316
 22.8260340567338389 31.5376118927750753 18.3155757467537974
 22.8260340567338389 31.5376118927750753 21.0874343290050632
 22.8260340567338389 31.5376118927750753 23.8592929112563326
 20.5430229388912018 29.8789072237533375 15.5437171645025316
 20.5430229388912018 29.8789072237533375 18.3155757467537974
 20.5430229388912018 29.8789072237533375 21.0874343290050632
 20.5430229388912018 29.8789072237533375 23.8592929112563326
 18.2600118210485611 28.2202025547316033 15.5437171645025316
 18.2600118210485611 28.2202025547316033 18.3155757467537974
 18.2600118210485611 28.2202025547316033 21.0874343290050632
 18.2600118210485611 28.2202025547316033 23.8592929112563326
 15.9770007032059222 26.5614978857098656 15.5437171645025316
 15.9770007032059222 26.5614978857098656 18.3155757467537974
 15.9770007032059222 26.5614978857098656 21.0874343290050632
 15.9770007032059222 26.5614978857098656 23.8592929112563326
 16.8490333535279184 23.8776573539345520 15.5437171645025316
 16.8490333535279184 23.8776573539345520 18.3155757467537974
 16.8490333535279184 23.8776573539345520 21.0874343290050632
 16.8490333535279184 23.8776573539345520 23.8592929112563326
 17.7210660038499128 21.1938168221592385 15.5437171645025316
 17.7210660038499128 21.1938168221592385 18.3155757467537974
 17.7210660038499128 21.1938168221592385 21.0874343290050632
 17.7210660038499128 21.1938168221592385 23.8592929112563326
 18.5930986541719108 18.5099762903839249 15.5437171645025316
 18.5930986541719108 18.5099762903839249 18.3155757467537974
 18.5930986541719108 18.5099762903839249 21.0874343290050632
 18.5930986541719108 18.5099762903839249 23.8592929112563326
 19.4651313044939087 15.8261357586086113 15.5437171645025316
 19.4651313044939087 15.8261357586086113 18.3155757467537974
 19.4651313044939087 15.8261357586086113 21.0874343290050632
 19.4651313044939087 15.8261357586086113 23.8592929112563326
 22.2870882395351941 15.8261357586086113 15.5437171645025316
 22.2870882395351941 15.8261357586086113 18.3155757467537974
 22.2870882395351941 15.8261357586086113 21.0874343290050632
 22.2870882395351941 15.8261357586086113 23.8592929112563326
 25.1090451745764796 15.8261357586086113 15.5437171645025316
 25.1090451745764796 15.8261357586086113 18.3155757467537974
 25.1090451745764796 15.8261357586086113 21.0874343290050632
 25.1090451745764796 15.8261357586086113 23.8592929112563326
 27.9310021096177650 15.8261357586086095 15.5437171645025316
 27.9310021096177650 15.8261357586086095 18.3155757467537974
 27.9310021096177650 15.8261357586086095 21.0874343290050632
 27.9310021096177650 15.8261357586086095 23.8592929112563326
 30.7529590446590468 15.8261357586086095 15.5437171645025316
 30.7529590446590468 15.8261357586086095 18.3155757467537974
 30.7529590446590468 15.8261357586086095 21.0874343290050632
 30.7529590446590468 15.8261357586086095 23.8592929112563326
 31.6249916949810448 18.5099762903839213 15.5437171645025316
 31.6249916949810448 18.5099762903839213 18.3155757467537974
 31.6249916949810448 18.5099762903839213 21.0874343290050632
 31.6249916949810448 18.5099762903839213 23.8592929112563326
 32.4970243453030463 21.1938168221592349 15.5437171645025316
 32.4970243453030463 21.1938168221592349 18.3155757467537974
 32.4970243453030463 21.1938168221592349 21.0874343290050632
 32.4970243453030463 21.1938168221592349 23.8592929112563326
 33.3690569956250442 23.8776573539345485 15.5437171645025316
 33.3690569956250442 23.8776573539345485 18.3155757467537974
 33.3690569956250442 23.8776573539345485 21.0874343290050632
 33.3690569956250442 23.8776573539345485 23.8592929112563326
 36.5241007637896757 27.3032931646156420 16.9296464556281663
 36.5241007637896757 27.3032931646156420 19.7015050378794321
 36.5241007637896757 27.3032931646156420 22.4733636201306979
 34.2410896459470351 28.9619978336373762 16.9296464556281663
 34.2410896459470351 28.9619978336373762 19.7015050378794321
 34.2410896459470351 28.9619978336373762 22.4733636201306979
 31.9580785281043980 30.6207025026591140 16.9296464556281663
 31.9580785281043980 30.6207025026591140 19.7015050378794321
 31.9580785281043980 30.6207025026591140 22.4733636201306979
 29.6750674102617573 32.2794071716808517 16.9296464556281663
 29.6750674102617573 32.2794071716808517 19.7015050378794321
 29.6750674102617573 32.2794071716808517 22.4733636201306979
 27.3920562924191202 33.9381118407025895 16.9296464556281663
 27.3920562924191202 33.9381118407025895 19.7015050378794321
 27.3920562924191202 33.9381118407025895 22.4733636201306979
 25.1090451745764796 35.5968165097243201 16.9296464556281663
 25.1090451745764796 35.5968165097243201 19.7015050378794321
 25.1090451745764796 35.5968165097243201 22.4733636201306979
 22.8260340567338389 33.9381118407025895 16.9296464556281663
 22.8260340567338389 33.9381118407025895 19.7015050378794321
 22.8260340567338389 33.9381118407025895 22.4733636201306979
 20.5430229388912018 32.2794071716808517 16.9296464556281663
 20.5430229388912018 32.2794071716808517 19.7015050378794321
 20.5430229388912018 32.2794071716808517 22.4733636201306979
 18.2600118210485611 30.6207025026591175 16.9296464556281663
 18.2600118210485611 30.6207025026591175 19.7015050378794321
 18.2600118210485611 30.6207025026591175 22.4733636201306979
 15.9770007032059222 28.9619978336373798 16.9296464556281663
 15.9770007032059222 28.9619978336373798 19.7015050378794321
 15.9770007032059222 28.9619978336373798 22.4733636201306979
 13.6939895853632834 27.3032931646156456 16.9296464556281663
 13.6939895853632834 27.3032931646156456 19.7015050378794321
 13.6939895853632834 27.3032931646156456 22.4733636201306979
 14.5660222356852795 24.6194526328403320 16.9296464556281663
 14.5660222356852795 24.6194526328403320 19.7015050378794321
 14.5660222356852795 24.6194526328403320 22.4733636201306979
 15.4380548860072757 21.9356121010650185 16.9296464556281663
 15.4380548860072757 21.9356121010650185 19.7015050378794321
 15.4380548860072757 21.9356121010650185 22.4733636201306979
 16.3100875363292701 19.2517715692897049 16.9296464556281663
 16.3100875363292701 19.2517715692897049 19.7015050378794321
 16.3100875363292701 19.2517715692897049 22.4733636201306979
 17.1821201866512681 16.5679310375143913 16.9296464556281663
 17.1821201866512681 16.5679310375143913 19.7015050378794321
 17.1821201866512681 16.5679310375143913 22.4733636201306979
 18.0541528369732660 13.8840905057390778 16.9296464556281663
 18.0541528369732660 13.8840905057390778 19.7015050378794321
 18.0541528369732660 13.8840905057390778 22.4733636201306979
 20.8761097720145514 13.8840905057390760 16.9296464556281663
 20.8761097720145514 13.8840905057390760 19.7015050378794321
 20.8761097720145514 13.8840905057390760 22.4733636201306979
 23.6980667070558333 13.8840905057390760 16.9296464556281663
 23.6980667070558333 13.8840905057390760 19.7015050378794321
 23.6980667070558333 13.8840905057390760 22.4733636201306979
 26.5200236420971187 13.8840905057390742 16.9296464556281663
 26.5200236420971187 13.8840905057390742 19.7015050378794321
 26.5200236420971187 13.8840905057390742 22.4733636201306979
 29.3419805771384041 13.8840905057390742 16.9296464556281663
 29.3419805771384041 13.8840905057390742 19.7015050378794321
 29.3419805771384041 13.8840905057390742 22.4733636201306979
 32.1639375121796860 13.8840905057390742 16.9296464556281663
 32.1639375121796860 13.8840905057390742 19.7015050378794321
 32.1639375121796860 13.8840905057390742 22.4733636201306979
 33.0359701625016839 16.5679310375143878 16.9296464556281663
 33.0359701625016839 16.5679310375143878 19.7015050378794321
 33.0359701625016839 16.5679310375143878 22.4733636201306979
 33.9080028128236819 19.2517715692897013 16.9296464556281663
 33.9080028128236819 19.2517715692897013 19.7015050378794321
 33.9080028128236819 19.2517715692897013 22.4733636201306979
 34.7800354631456798 21.9356121010650149 16.9296464556281663
 34.7800354631456798 21.9356121010650149 19.7015050378794321
 34.7800354631456798 21.9356121010650149 22.4733636201306979
 35.6520681134676778 24.6194526328403285 16.9296464556281663
 35.6520681134676778 24.6194526328403285 19.7015050378794321
 35.6520681134676778 24.6194526328403285 22.4733636201306979
 38.8071118816323164 28.0450884435214185 18.3155757467537974
 38.8071118816323164 28.0450884435214185 21.0874343290050668
 36.5241007637896757 29.7037931125431562 18.3155757467537974
 36.5241007637896757 29.7037931125431562 21.0874343290050668
 34.2410896459470351 31.3624977815648904 18.3155757467537974
 34.2410896459470351 31.3624977815648904 21.0874343290050668
 31.9580785281043980 33.0212024505866282 18.3155757467537974
 31.9580785281043980 33.0212024505866282 21.0874343290050668
 29.6750674102617609 34.6799071196083659 18.3155757467537974
 29.6750674102617609 34.6799071196083659 21.0874343290050668
 27.3920562924191202 36.3386117886301037 18.3155757467537974
 27.3920562924191202 36.3386117886301037 21.0874343290050668
 25.1090451745764796 37.9973164576518343 18.3155757467537974
 25.1090451745764796 37.9973164576518343 21.0874343290050668
 22.8260340567338424 36.3386117886301037 18.3155757467537974
 22.8260340567338424 36.3386117886301037 21.0874343290050668
 20.5430229388912018 34.6799071196083659 18.3155757467537974
 20.5430229388912018 34.6799071196083659 21.0874343290050668
 18.2600118210485611 33.0212024505866282 18.3155757467537974
 18.2600118210485611 33.0212024505866282 21.0874343290050668
 15.9770007032059222 31.3624977815648940 18.3155757467537974
 15.9770007032059222 31.3624977815648940 21.0874343290050668
 13.6939895853632834 29.7037931125431598 18.3155757467537974
 13.6939895853632834 29.7037931125431598 21.0874343290050668
 11.4109784675206427 28.0450884435214221 18.3155757467537974
 11.4109784675206427 28.0450884435214221 21.0874343290050668
 12.2830111178426407 25.3612479117461085 18.3155757467537974
 12.2830111178426407 25.3612479117461085 21.0874343290050668
 13.1550437681646368 22.6774073799707949 18.3155757467537974
 13.1550437681646368 22.6774073799707949 21.0874343290050668
 14.0270764184866330 19.9935668481954849 18.3155757467537974
 14.0270764184866330 19.9935668481954849 21.0874343290050668
 14.8991090688086292 17.3097263164201678 18.3155757467537974
 14.8991090688086292 17.3097263164201678 21.0874343290050668
 15.7711417191306253 14.6258857846448560 18.3155757467537974
 15.7711417191306253 14.6258857846448560 21.0874343290050668
 16.6431743694526233 11.9420452528695424 18.3155757467537974
 16.6431743694526233 11.9420452528695424 21.0874343290050668
 19.4651313044939087 11.9420452528695424 18.3155757467537974
 19.4651313044939087 11.9420452528695424 21.0874343290050668
 22.2870882395351906 11.9420452528695407 18.3155757467537974
 22.2870882395351906 11.9420452528695407 21.0874343290050668
 25.1090451745764760 11.9420452528695407 18.3155757467537974
 25.1090451745764760 11.9420452528695407 21.0874343290050668
 27.9310021096177614 11.9420452528695389 18.3155757467537974
 27.9310021096177614 11.9420452528695389 21.0874343290050668
 30.7529590446590468 11.9420452528695389 18.3155757467537974
 30.7529590446590468 11.9420452528695389 21.0874343290050668
 33.5749159797003358 11.9420452528695371 18.3155757467537974
 33.5749159797003358 11.9420452528695371 21.0874343290050668
 34.4469486300223267 14.6258857846448524 18.3155757467537974
 34.4469486300223267 14.6258857846448524 21.0874343290050668
 35.3189812803443246 17.3097263164201642 18.3155757467537974
 35.3189812803443246 17.3097263164201642 21.0874343290050668
 36.1910139306663226 19.9935668481954778 18.3155757467537974
 36.1910139306663226 19.9935668481954778 21.0874343290050668
 37.0630465809883205 22.6774073799707914 18.3155757467537974
 37.0630465809883205 22.6774073799707914 21.0874343290050668
 37.9350792313103184 25.3612479117461049 18.3155757467537974
 37.9350792313103184 25.3612479117461049 21.0874343290050668
 38.8071118816323164 30.4455883914489327 19.7015050378794321
 36.5241007637896757 32.1042930604706669 19.7015050378794321
 34.2410896459470351 33.7629977294924046 19.7015050378794321
 31.9580785281043980 35.4217023985141424 19.7015050378794321
 29.6750674102617609 37.0804070675358801 19.7015050378794321
 27.3920562924191202 38.7391117365576179 19.7015050378794321
 22.8260340567338424 38.7391117365576179 19.7015050378794321
 20.5430229388912018 37.0804070675358801 19.7015050378794321
 18.2600118210485611 35.4217023985141424 19.7015050378794321
 15.9770007032059222 33.7629977294924117 19.7015050378794321
 13.6939895853632834 32.1042930604706740 19.7015050378794321
 11.4109784675206427 30.4455883914489362 19.7015050378794321
 10.0000000000000000 26.1030431906518885 19.7015050378794321
 10.8720326503219979 23.4192026588765749 19.7015050378794321
 11.7440653006439923 20.7353621271012614 19.7015050378794321
 12.6160979509659903 18.0515215953259478 19.7015050378794321
 13.4881306012879865 15.3676810635506342 19.7015050378794321
 14.3601632516099826 12.6838405317753207 19.7015050378794321
 18.0541528369732625 10.0000000000000071 19.7015050378794321
 20.8761097720145514 10.0000000000000071 19.7015050378794321
 23.6980667070558333 10.0000000000000036 19.7015050378794321
 26.5200236420971187 10.0000000000000036 19.7015050378794321
 29.3419805771384041 10.0000000000000036 19.7015050378794321
 32.1639375121796860 10.0000000000000018 19.7015050378794321
 35.8579270975429694 12.6838405317753153 19.7015050378794321
 36.7299597478649673 15.3676810635506289 19.7015050378794321
 37.6019923981869653 18.0515215953259442 19.7015050378794321
 38.4740250485089632 20.7353621271012543 19.7015050378794321
 39.3460576988309612 23.4192026588765714 19.7015050378794321
 40.2180903491529591 26.1030431906518814 19.7015050378794321
