Pt 
 1.0000000000000000
    45.6520681134676778    0.0000000000000000    0.0000000000000000
     0.0000000000000000   44.3965665357605630    0.0000000000000000
     0.0000000000000000    0.0000000000000000   44.9467272402613958
 Pt 
 585
Cartesian
 22.8260340567338389 21.6522715172172155 10.0000000000000000
 22.8260340567338389 21.6522715172172155 12.7718585822512658
 22.8260340567338389 21.6522715172172155 15.5437171645025316
 22.8260340567338389 21.6522715172172155 18.3155757467538010
 22.8260340567338389 21.6522715172172155 21.0874343290050632
 22.8260340567338389 21.6522715172172155 23.8592929112563326
 22.8260340567338389 21.6522715172172155 26.6311514935075984
 22.8260340567338389 21.6522715172172155 29.4030100757588642
 22.8260340567338389 21.6522715172172155 32.1748686580101264
 22.8260340567338389 21.6522715172172155 34.9467272402613958
 25.1090451745764796 22.3940667961229920 11.3859292911256329
 25.1090451745764796 22.3940667961229920 14.1577878733768987
 25.1090451745764796 22.3940667961229920 16.9296464556281663
 25.1090451745764796 22.3940667961229920 19.7015050378794321
 25.1090451745764796 22.3940667961229920 22.4733636201306979
 25.1090451745764796 22.3940667961229920 25.2452222023819637
 25.1090451745764796 22.3940667961229920 28.0170807846332295
 25.1090451745764796 22.3940667961229920 30.7889393668844988
 25.1090451745764796 22.3940667961229920 33.5607979491357611
 22.8260340567338389 24.0527714651447297 11.3859292911256329
 22.8260340567338389 24.0527714651447297 14.1577878733768987
 22.8260340567338389 24.0527714651447297 16.9296464556281663
 22.8260340567338389 24.0527714651447297 19.7015050378794321
 22.8260340567338389 24.0527714651447297 22.4733636201306979
 22.8260340567338389 24.0527714651447297 25.2452222023819637
 22.8260340567338389 24.0527714651447297 28.0170807846332295
 22.8260340567338389 24.0527714651447297 30.7889393668844988
 22.8260340567338389 24.0527714651447297 33.5607979491357611
 20.5430229388911982 22.3940667961229956 11.3859292911256329
 20.5430229388911982 22.3940667961229956 14.1577878733768987
 20.5430229388911982 22.3940667961229956 16.9296464556281663
 20.5430229388911982 22.3940667961229956 19.7015050378794321
 20.5430229388911982 22.3940667961229956 22.4733636201306979
 20.5430229388911982 22.3940667961229956 25.2452222023819637
 20.5430229388911982 22.3940667961229956 28.0170807846332295
 20.5430229388911982 22.3940667961229956 30.7889393668844988
 20.5430229388911982 22.3940667961229956 33.5607979491357611
 21.4150555892131962 19.7102262643476820 11.3859292911256329
 21.4150555892131962 19.7102262643476820 14.1577878733768987
 21.4150555892131962 19.7102262643476820 16.9296464556281663
 21.4150555892131962 19.7102262643476820 19.7015050378794321
 21.4150555892131962 19.7102262643476820 22.4733636201306979
 21.4150555892131962 19.7102262643476820 25.2452222023819637
 21.4150555892131962 19.7102262643476820 28.0170807846332295
 21.4150555892131962 19.7102262643476820 30.7889393668844988
 21.4150555892131962 19.7102262643476820 33.5607979491357611
 24.2370125242544816 19.7102262643476784 11.3859292911256329
 24.2370125242544816 19.7102262643476784 14.1577878733768987
 24.2370125242544816 19.7102262643476784 16.9296464556281663
 24.2370125242544816 19.7102262643476784 19.7015050378794321
 24.2370125242544816 19.7102262643476784 22.4733636201306979
 24.2370125242544816 19.7102262643476784 25.2452222023819637
 24.2370125242544816 19.7102262643476784 28.0170807846332295
 24.2370125242544816 19.7102262643476784 30.7889393668844988
 24.2370125242544816 19.7102262643476784 33.5607979491357611
 27.3920562924191167 23.1358620750287720 12.7718585822512658
 27.3920562924191167 23.1358620750287720 15.5437171645025316
 27.3920562924191167 23.1358620750287720 18.3155757467537974
 27.3920562924191167 23.1358620750287720 21.0874343290050632
 27.3920562924191167 23.1358620750287720 23.8592929112563326
 27.3920562924191167 23.1358620750287720 26.6311514935075948
 27.3920562924191167 23.1358620750287720 29.4030100757588642
 27.3920562924191167 23.1358620750287720 32.1748686580101264
 25.1090451745764796 24.7945667440505062 12.7718585822512658
 25.1090451745764796 24.7945667440505062 15.5437171645025316
 25.1090451745764796 24.7945667440505062 18.3155757467537974
 25.1090451745764796 24.7945667440505062 21.0874343290050632
 25.1090451745764796 24.7945667440505062 23.8592929112563326
 25.1090451745764796 24.7945667440505062 26.6311514935075948
 25.1090451745764796 24.7945667440505062 29.4030100757588642
 25.1090451745764796 24.7945667440505062 32.1748686580101264
 22.8260340567338389 26.4532714130722439 12.7718585822512658
 22.8260340567338389 26.4532714130722439 15.5437171645025316
 22.8260340567338389 26.4532714130722439 18.3155757467537974
 22.8260340567338389 26.4532714130722439 21.0874343290050632
 22.8260340567338389 26.4532714130722439 23.8592929112563326
 22.8260340567338389 26.4532714130722439 26.6311514935075948
 22.8260340567338389 26.4532714130722439 29.4030100757588642
 22.8260340567338389 26.4532714130722439 32.1748686580101264
 20.5430229388911982 24.7945667440505062 12.7718585822512658
 20.5430229388911982 24.7945667440505062 15.5437171645025316
 20.5430229388911982 24.7945667440505062 18.3155757467537974
 20.5430229388911982 24.7945667440505062 21.0874343290050632
 20.5430229388911982 24.7945667440505062 23.8592929112563326
 20.5430229388911982 24.7945667440505062 26.6311514935075948
 20.5430229388911982 24.7945667440505062 29.4030100757588642
 20.5430229388911982 24.7945667440505062 32.1748686580101264
 18.2600118210485611 23.1358620750287720 12.7718585822512658
 18.2600118210485611 23.1358620750287720 15.5437171645025316
 18.2600118210485611 23.1358620750287720 18.3155757467537974
 18.2600118210485611 23.1358620750287720 21.0874343290050632
 18.2600118210485611 23.1358620750287720 23.8592929112563326
 18.2600118210485611 23.1358620750287720 26.6311514935075948
 18.2600118210485611 23.1358620750287720 29.4030100757588642
 18.2600118210485611 23.1358620750287720 32.1748686580101264
 19.1320444713705555 20.4520215432534584 12.7718585822512658
 19.1320444713705555 20.4520215432534584 15.5437171645025316
 19.1320444713705555 20.4520215432534584 18.3155757467537974
 19.1320444713705555 20.4520215432534584 21.0874343290050632
 19.1320444713705555 20.4520215432534584 23.8592929112563326
 19.1320444713705555 20.4520215432534584 26.6311514935075948
 19.1320444713705555 20.4520215432534584 29.4030100757588642
 19.1320444713705555 20.4520215432534584 32.1748686580101264
 20.0040771216925535 17.7681810114781449 12.7718585822512658
 20.0040771216925535 17.7681810114781449 15.5437171645025316
 20.0040771216925535 17.7681810114781449 18.3155757467537974
 20.0040771216925535 17.7681810114781449 21.0874343290050632
 20.0040771216925535 17.7681810114781449 23.8592929112563326
 20.0040771216925535 17.7681810114781449 26.6311514935075948
 20.0040771216925535 17.7681810114781449 29.4030100757588642
 20.0040771216925535 17.7681810114781449 32.1748686580101264
 22.8260340567338389 17.7681810114781449 12.7718585822512658
 22.8260340567338389 17.7681810114781449 15.5437171645025316
 22.8260340567338389 17.7681810114781449 18.3155757467537974
 22.8260340567338389 17.7681810114781449 21.0874343290050632
 22.8260340567338389 17.7681810114781449 23.8592929112563326
 22.8260340567338389 17.7681810114781449 26.6311514935075948
 22.8260340567338389 17.7681810114781449 29.4030100757588642
 22.8260340567338389 17.7681810114781449 32.1748686580101264
 25.6479909917751243 17.7681810114781449 12.7718585822512658
 25.6479909917751243 17.7681810114781449 15.5437171645025316
 25.6479909917751243 17.7681810114781449 18.3155757467537974
 25.6479909917751243 17.7681810114781449 21.0874343290050632
 25.6479909917751243 17.7681810114781449 23.8592929112563326
 25.6479909917751243 17.7681810114781449 26.6311514935075948
 25.6479909917751243 17.7681810114781449 29.4030100757588642
 25.6479909917751243 17.7681810114781449 32.1748686580101264
 26.5200236420971223 20.4520215432534584 12.7718585822512658
 26.5200236420971223 20.4520215432534584 15.5437171645025316
 26.5200236420971223 20.4520215432534584 18.3155757467537974
 26.5200236420971223 20.4520215432534584 21.0874343290050632
 26.5200236420971223 20.4520215432534584 23.8592929112563326
 26.5200236420971223 20.4520215432534584 26.6311514935075948
 26.5200236420971223 20.4520215432534584 29.4030100757588642
 26.5200236420971223 20.4520215432534584 32.1748686580101264
 29.6750674102617573 23.8776573539345485 14.1577878733768987
 29.6750674102617573 23.8776573539345485 16.9296464556281663
 29.6750674102617573 23.8776573539345485 19.7015050378794321
 29.6750674102617573 23.8776573539345485 22.4733636201306979
 29.6750674102617573 23.8776573539345485 25.2452222023819637
 29.6750674102617573 23.8776573539345485 28.0170807846332295
 29.6750674102617573 23.8776573539345485 30.7889393668844988
 27.3920562924191167 25.5363620229562862 14.1577878733768987
 27.3920562924191167 25.5363620229562862 16.9296464556281663
 27.3920562924191167 25.5363620229562862 19.7015050378794321
 27.3920562924191167 25.5363620229562862 22.4733636201306979
 27.3920562924191167 25.5363620229562862 25.2452222023819637
 27.3920562924191167 25.5363620229562862 28.0170807846332295
 27.3920562924191167 25.5363620229562862 30.7889393668844988
 25.1090451745764796 27.1950666919780204 14.1577878733768987
 25.1090451745764796 27.1950666919780204 16.9296464556281663
 25.1090451745764796 27.1950666919780204 19.7015050378794321
 25.1090451745764796 27.1950666919780204 22.4733636201306979
 25.1090451745764796 27.1950666919780204 25.2452222023819637
 25.1090451745764796 27.1950666919780204 28.0170807846332295
 25.1090451745764796 27.1950666919780204 30.7889393668844988
 22.8260340567338389 28.8537713609997581 14.1577878733768987
 22.8260340567338389 28.8537713609997581 16.9296464556281663
 22.8260340567338389 28.8537713609997581 19.7015050378794321
 22.8260340567338389 28.8537713609997581 22.4733636201306979
 22.8260340567338389 28.8537713609997581 25.2452222023819637
 22.8260340567338389 28.8537713609997581 28.0170807846332295
 22.8260340567338389 28.8537713609997581 30.7889393668844988
 20.5430229388911982 27.1950666919780204 14.1577878733768987
 20.5430229388911982 27.1950666919780204 16.9296464556281663
 20.5430229388911982 27.1950666919780204 19.7015050378794321
 20.5430229388911982 27.1950666919780204 22.4733636201306979
 20.5430229388911982 27.1950666919780204 25.2452222023819637
 20.5430229388911982 27.1950666919780204 28.0170807846332295
 20.5430229388911982 27.1950666919780204 30.7889393668844988
 18.2600118210485611 25.5363620229562862 14.1577878733768987
 18.2600118210485611 25.5363620229562862 16.9296464556281663
 18.2600118210485611 25.5363620229562862 19.7015050378794321
 18.2600118210485611 25.5363620229562862 22.4733636201306979
 18.2600118210485611 25.5363620229562862 25.2452222023819637
 18.2600118210485611 25.5363620229562862 28.0170807846332295
 18.2600118210485611 25.5363620229562862 30.7889393668844988
 15.9770007032059205 23.8776573539345520 14.1577878733768987
 15.9770007032059205 23.8776573539345520 16.9296464556281663
 15.9770007032059205 23.8776573539345520 19.7015050378794321
 15.9770007032059205 23.8776573539345520 22.4733636201306979
 15.9770007032059205 23.8776573539345520 25.2452222023819637
 15.9770007032059205 23.8776573539345520 28.0170807846332295
 15.9770007032059205 23.8776573539345520 30.7889393668844988
 16.8490333535279184 21.1938168221592385 14.1577878733768987
 16.8490333535279184 21.1938168221592385 16.9296464556281663
 16.8490333535279184 21.1938168221592385 19.7015050378794321
 16.8490333535279184 21.1938168221592385 22.4733636201306979
 16.8490333535279184 21.1938168221592385 25.2452222023819637
 16.8490333535279184 21.1938168221592385 28.0170807846332295
 16.8490333535279184 21.1938168221592385 30.7889393668844988
 17.7210660038499128 18.5099762903839249 14.1577878733768987
 17.7210660038499128 18.5099762903839249 16.9296464556281663
 17.7210660038499128 18.5099762903839249 19.7015050378794321
 17.7210660038499128 18.5099762903839249 22.4733636201306979
 17.7210660038499128 18.5099762903839249 25.2452222023819637
 17.7210660038499128 18.5099762903839249 28.0170807846332295
 17.7210660038499128 18.5099762903839249 30.7889393668844988
 18.5930986541719108 15.8261357586086113 14.1577878733768987
 18.5930986541719108 15.8261357586086113 16.9296464556281663
 18.5930986541719108 15.8261357586086113 19.7015050378794321
 18.5930986541719108 15.8261357586086113 22.4733636201306979
 18.5930986541719108 15.8261357586086113 25.2452222023819637
 18.5930986541719108 15.8261357586086113 28.0170807846332295
 18.5930986541719108 15.8261357586086113 30.7889393668844988
 21.4150555892131962 15.8261357586086095 14.1577878733768987
 21.4150555892131962 15.8261357586086095 16.9296464556281663
 21.4150555892131962 15.8261357586086095 19.7015050378794321
 21.4150555892131962 15.8261357586086095 22.4733636201306979
 21.4150555892131962 15.8261357586086095 25.2452222023819637
 21.4150555892131962 15.8261357586086095 28.0170807846332295
 21.4150555892131962 15.8261357586086095 30.7889393668844988
 24.2370125242544816 15.8261357586086078 14.1577878733768987
 24.2370125242544816 15.8261357586086078 16.9296464556281663
 24.2370125242544816 15.8261357586086078 19.7015050378794321
 24.2370125242544816 15.8261357586086078 22.4733636201306979
 24.2370125242544816 15.8261357586086078 25.2452222023819637
 24.2370125242544816 15.8261357586086078 28.0170807846332295
 24.2370125242544816 15.8261357586086078 30.7889393668844988
 27.0589694592957670 15.8261357586086078 14.1577878733768987
 27.0589694592957670 15.8261357586086078 16.9296464556281663
 27.0589694592957670 15.8261357586086078 19.7015050378794321
 27.0589694592957670 15.8261357586086078 22.4733636201306979
 27.0589694592957670 15.8261357586086078 25.2452222023819637
 27.0589694592957670 15.8261357586086078 28.0170807846332295
 27.0589694592957670 15.8261357586086078 30.7889393668844988
 27.9310021096177614 18.5099762903839213 14.1577878733768987
 27.9310021096177614 18.5099762903839213 16.9296464556281663
 27.9310021096177614 18.5099762903839213 19.7015050378794321
 27.9310021096177614 18.5099762903839213 22.4733636201306979
 27.9310021096177614 18.5099762903839213 25.2452222023819637
 27.9310021096177614 18.5099762903839213 28.0170807846332295
 27.9310021096177614 18.5099762903839213 30.7889393668844988
 28.8030347599397594 21.1938168221592349 14.1577878733768987
 28.8030347599397594 21.1938168221592349 16.9296464556281663
 28.8030347599397594 21.1938168221592349 19.7015050378794321
 28.8030347599397594 21.1938168221592349 22.4733636201306979
 28.8030347599397594 21.1938168221592349 25.2452222023819637
 28.8030347599397594 21.1938168221592349 28.0170807846332295
 28.8030347599397594 21.1938168221592349 30.7889393668844988
 31.9580785281043944 24.6194526328403249 15.5437171645025316
 31.9580785281043944 24.6194526328403249 18.3155757467538010
 31.9580785281043944 24.6194526328403249 21.0874343290050632
 31.9580785281043944 24.6194526328403249 23.8592929112563326
 31.9580785281043944 24.6194526328403249 26.6311514935075984
 31.9580785281043944 24.6194526328403249 29.4030100757588642
 29.6750674102617573 26.2781573018620627 15.5437171645025316
 29.6750674102617573 26.2781573018620627 18.3155757467538010
 29.6750674102617573 26.2781573018620627 21.0874343290050632
 29.6750674102617573 26.2781573018620627 23.8592929112563326
 29.6750674102617573 26.2781573018620627 26.6311514935075984
 29.6750674102617573 26.2781573018620627 29.4030100757588642
 27.3920562924191167 27.9368619708838004 15.5437171645025316
 27.3920562924191167 27.9368619708838004 18.3155757467538010
 27.3920562924191167 27.9368619708838004 21.0874343290050632
 27.3920562924191167 27.9368619708838004 23.8592929112563326
 27.3920562924191167 27.9368619708838004 26.6311514935075984
 27.3920562924191167 27.9368619708838004 29.4030100757588642
 25.1090451745764796 29.5955666399055346 15.5437171645025316
 25.1090451745764796 29.5955666399055346 18.3155757467538010
 25.1090451745764796 29.5955666399055346 21.0874343290050632
 25.1090451745764796 29.5955666399055346 23.8592929112563326
 25.1090451745764796 29.5955666399055346 26.6311514935075984
 25.1090451745764796 29.5955666399055346 29.4030100757588642
 22.8260340567338389 31.2542713089272723 15.5437171645025316
 22.8260340567338389 31.2542713089272723 18.3155757467538010
 22.8260340567338389 31.2542713089272723 21.0874343290050632
 22.8260340567338389 31.2542713089272723 23.8592929112563326
 22.8260340567338389 31.2542713089272723 26.6311514935075984
 22.8260340567338389 31.2542713089272723 29.4030100757588642
 20.5430229388911982 29.5955666399055346 15.5437171645025316
 20.5430229388911982 29.5955666399055346 18.3155757467538010
 20.5430229388911982 29.5955666399055346 21.0874343290050632
 20.5430229388911982 29.5955666399055346 23.8592929112563326
 20.5430229388911982 29.5955666399055346 26.6311514935075984
 20.5430229388911982 29.5955666399055346 29.4030100757588642
 18.2600118210485611 27.9368619708838004 15.5437171645025316
 18.2600118210485611 27.9368619708838004 18.3155757467538010
 18.2600118210485611 27.9368619708838004 21.0874343290050632
 18.2600118210485611 27.9368619708838004 23.8592929112563326
 18.2600118210485611 27.9368619708838004 26.6311514935075984
 18.2600118210485611 27.9368619708838004 29.4030100757588642
 15.9770007032059205 26.2781573018620662 15.5437171645025316
 15.9770007032059205 26.2781573018620662 18.3155757467538010
 15.9770007032059205 26.2781573018620662 21.0874343290050632
 15.9770007032059205 26.2781573018620662 23.8592929112563326
 15.9770007032059205 26.2781573018620662 26.6311514935075984
 15.9770007032059205 26.2781573018620662 29.4030100757588642
 13.6939895853632816 24.6194526328403285 15.5437171645025316
 13.6939895853632816 24.6194526328403285 18.3155757467538010
 13.6939895853632816 24.6194526328403285 21.0874343290050632
 13.6939895853632816 24.6194526328403285 23.8592929112563326
 13.6939895853632816 24.6194526328403285 26.6311514935075984
 13.6939895853632816 24.6194526328403285 29.4030100757588642
 14.5660222356852778 21.9356121010650149 15.5437171645025316
 14.5660222356852778 21.9356121010650149 18.3155757467538010
 14.5660222356852778 21.9356121010650149 21.0874343290050632
 14.5660222356852778 21.9356121010650149 23.8592929112563326
 14.5660222356852778 21.9356121010650149 26.6311514935075984
 14.5660222356852778 21.9356121010650149 29.4030100757588642
 15.4380548860072739 19.2517715692897013 15.5437171645025316
 15.4380548860072739 19.2517715692897013 18.3155757467538010
 15.4380548860072739 19.2517715692897013 21.0874343290050632
 15.4380548860072739 19.2517715692897013 23.8592929112563326
 15.4380548860072739 19.2517715692897013 26.6311514935075984
 15.4380548860072739 19.2517715692897013 29.4030100757588642
 16.3100875363292701 16.5679310375143878 15.5437171645025316
 16.3100875363292701 16.5679310375143878 18.3155757467538010
 16.3100875363292701 16.5679310375143878 21.0874343290050632
 16.3100875363292701 16.5679310375143878 23.8592929112563326
 16.3100875363292701 16.5679310375143878 26.6311514935075984
 16.3100875363292701 16.5679310375143878 29.4030100757588642
 17.1821201866512681 13.8840905057390742 15.5437171645025316
 17.1821201866512681 13.8840905057390742 18.3155757467538010
 17.1821201866512681 13.8840905057390742 21.0874343290050632
 17.1821201866512681 13.8840905057390742 23.8592929112563326
 17.1821201866512681 13.8840905057390742 26.6311514935075984
 17.1821201866512681 13.8840905057390742 29.4030100757588642
 20.0040771216925535 13.8840905057390742 15.5437171645025316
 20.0040771216925535 13.8840905057390742 18.3155757467538010
 20.0040771216925535 13.8840905057390742 21.0874343290050632
 20.0040771216925535 13.8840905057390742 23.8592929112563326
 20.0040771216925535 13.8840905057390742 26.6311514935075984
 20.0040771216925535 13.8840905057390742 29.4030100757588642
 22.8260340567338389 13.8840905057390742 15.5437171645025316
 22.8260340567338389 13.8840905057390742 18.3155757467538010
 22.8260340567338389 13.8840905057390742 21.0874343290050632
 22.8260340567338389 13.8840905057390742 23.8592929112563326
 22.8260340567338389 13.8840905057390742 26.6311514935075984
 22.8260340567338389 13.8840905057390742 29.4030100757588642
 25.6479909917751243 13.8840905057390724 15.5437171645025316
 25.6479909917751243 13.8840905057390724 18.3155757467538010
 25.6479909917751243 13.8840905057390724 21.0874343290050632
 25.6479909917751243 13.8840905057390724 23.8592929112563326
 25.6479909917751243 13.8840905057390724 26.6311514935075984
 25.6479909917751243 13.8840905057390724 29.4030100757588642
 28.4699479268164062 13.8840905057390724 15.5437171645025316
 28.4699479268164062 13.8840905057390724 18.3155757467538010
 28.4699479268164062 13.8840905057390724 21.0874343290050632
 28.4699479268164062 13.8840905057390724 23.8592929112563326
 28.4699479268164062 13.8840905057390724 26.6311514935075984
 28.4699479268164062 13.8840905057390724 29.4030100757588642
 29.3419805771384041 16.5679310375143842 15.5437171645025316
 29.3419805771384041 16.5679310375143842 18.3155757467538010
 29.3419805771384041 16.5679310375143842 21.0874343290050632
 29.3419805771384041 16.5679310375143842 23.8592929112563326
 29.3419805771384041 16.5679310375143842 26.6311514935075984
 29.3419805771384041 16.5679310375143842 29.4030100757588642
 30.2140132274604021 19.2517715692897013 15.5437171645025316
 30.2140132274604021 19.2517715692897013 18.3155757467538010
 30.2140132274604021 19.2517715692897013 21.0874343290050632
 30.2140132274604021 19.2517715692897013 23.8592929112563326
 30.2140132274604021 19.2517715692897013 26.6311514935075984
 30.2140132274604021 19.2517715692897013 29.4030100757588642
 31.0860458777824000 21.9356121010650114 15.5437171645025316
 31.0860458777824000 21.9356121010650114 18.3155757467538010
 31.0860458777824000 21.9356121010650114 21.0874343290050632
 31.0860458777824000 21.9356121010650114 23.8592929112563326
 31.0860458777824000 21.9356121010650114 26.6311514935075984
 31.0860458777824000 21.9356121010650114 29.4030100757588642
 34.2410896459470351 25.3612479117461049 16.9296464556281663
 34.2410896459470351 25.3612479117461049 19.7015050378794321
 34.2410896459470351 25.3612479117461049 22.4733636201306979
 34.2410896459470351 25.3612479117461049 25.2452222023819637
 34.2410896459470351 25.3612479117461049 28.0170807846332295
 31.9580785281043944 27.0199525807678427 16.9296464556281663
 31.9580785281043944 27.0199525807678427 19.7015050378794321
 31.9580785281043944 27.0199525807678427 22.4733636201306979
 31.9580785281043944 27.0199525807678427 25.2452222023819637
 31.9580785281043944 27.0199525807678427 28.0170807846332295
 29.6750674102617573 28.6786572497895769 16.9296464556281663
 29.6750674102617573 28.6786572497895769 19.7015050378794321
 29.6750674102617573 28.6786572497895769 22.4733636201306979
 29.6750674102617573 28.6786572497895769 25.2452222023819637
 29.6750674102617573 28.6786572497895769 28.0170807846332295
 27.3920562924191167 30.3373619188113111 16.9296464556281663
 27.3920562924191167 30.3373619188113111 19.7015050378794321
 27.3920562924191167 30.3373619188113111 22.4733636201306979
 27.3920562924191167 30.3373619188113111 25.2452222023819637
 27.3920562924191167 30.3373619188113111 28.0170807846332295
 25.1090451745764796 31.9960665878330488 16.9296464556281663
 25.1090451745764796 31.9960665878330488 19.7015050378794321
 25.1090451745764796 31.9960665878330488 22.4733636201306979
 25.1090451745764796 31.9960665878330488 25.2452222023819637
 25.1090451745764796 31.9960665878330488 28.0170807846332295
 22.8260340567338389 33.6547712568547865 16.9296464556281663
 22.8260340567338389 33.6547712568547865 19.7015050378794321
 22.8260340567338389 33.6547712568547865 22.4733636201306979
 22.8260340567338389 33.6547712568547865 25.2452222023819637
 22.8260340567338389 33.6547712568547865 28.0170807846332295
 20.5430229388911982 31.9960665878330488 16.9296464556281663
 20.5430229388911982 31.9960665878330488 19.7015050378794321
 20.5430229388911982 31.9960665878330488 22.4733636201306979
 20.5430229388911982 31.9960665878330488 25.2452222023819637
 20.5430229388911982 31.9960665878330488 28.0170807846332295
 18.2600118210485611 30.3373619188113146 16.9296464556281663
 18.2600118210485611 30.3373619188113146 19.7015050378794321
 18.2600118210485611 30.3373619188113146 22.4733636201306979
 18.2600118210485611 30.3373619188113146 25.2452222023819637
 18.2600118210485611 30.3373619188113146 28.0170807846332295
 15.9770007032059205 28.6786572497895804 16.9296464556281663
 15.9770007032059205 28.6786572497895804 19.7015050378794321
 15.9770007032059205 28.6786572497895804 22.4733636201306979
 15.9770007032059205 28.6786572497895804 25.2452222023819637
 15.9770007032059205 28.6786572497895804 28.0170807846332295
 13.6939895853632816 27.0199525807678427 16.9296464556281663
 13.6939895853632816 27.0199525807678427 19.7015050378794321
 13.6939895853632816 27.0199525807678427 22.4733636201306979
 13.6939895853632816 27.0199525807678427 25.2452222023819637
 13.6939895853632816 27.0199525807678427 28.0170807846332295
 11.4109784675206427 25.3612479117461085 16.9296464556281663
 11.4109784675206427 25.3612479117461085 19.7015050378794321
 11.4109784675206427 25.3612479117461085 22.4733636201306979
 11.4109784675206427 25.3612479117461085 25.2452222023819637
 11.4109784675206427 25.3612479117461085 28.0170807846332295
 12.2830111178426389 22.6774073799707949 16.9296464556281663
 12.2830111178426389 22.6774073799707949 19.7015050378794321
 12.2830111178426389 22.6774073799707949 22.4733636201306979
 12.2830111178426389 22.6774073799707949 25.2452222023819637
 12.2830111178426389 22.6774073799707949 28.0170807846332295
 13.1550437681646351 19.9935668481954814 16.9296464556281663
 13.1550437681646351 19.9935668481954814 19.7015050378794321
 13.1550437681646351 19.9935668481954814 22.4733636201306979
 13.1550437681646351 19.9935668481954814 25.2452222023819637
 13.1550437681646351 19.9935668481954814 28.0170807846332295
 14.0270764184866312 17.3097263164201678 16.9296464556281663
 14.0270764184866312 17.3097263164201678 19.7015050378794321
 14.0270764184866312 17.3097263164201678 22.4733636201306979
 14.0270764184866312 17.3097263164201678 25.2452222023819637
 14.0270764184866312 17.3097263164201678 28.0170807846332295
 14.8991090688086274 14.6258857846448542 16.9296464556281663
 14.8991090688086274 14.6258857846448542 19.7015050378794321
 14.8991090688086274 14.6258857846448542 22.4733636201306979
 14.8991090688086274 14.6258857846448542 25.2452222023819637
 14.8991090688086274 14.6258857846448542 28.0170807846332295
 15.7711417191306253 11.9420452528695407 16.9296464556281663
 15.7711417191306253 11.9420452528695407 19.7015050378794321
 15.7711417191306253 11.9420452528695407 22.4733636201306979
 15.7711417191306253 11.9420452528695407 25.2452222023819637
 15.7711417191306253 11.9420452528695407 28.0170807846332295
 18.5930986541719108 11.9420452528695389 16.9296464556281663
 18.5930986541719108 11.9420452528695389 19.7015050378794321
 18.5930986541719108 11.9420452528695389 22.4733636201306979
 18.5930986541719108 11.9420452528695389 25.2452222023819637
 18.5930986541719108 11.9420452528695389 28.0170807846332295
 21.4150555892131926 11.9420452528695389 16.9296464556281663
 21.4150555892131926 11.9420452528695389 19.7015050378794321
 21.4150555892131926 11.9420452528695389 22.4733636201306979
 21.4150555892131926 11.9420452528695389 25.2452222023819637
 21.4150555892131926 11.9420452528695389 28.0170807846332295
 24.2370125242544781 11.9420452528695371 16.9296464556281663
 24.2370125242544781 11.9420452528695371 19.7015050378794321
 24.2370125242544781 11.9420452528695371 22.4733636201306979
 24.2370125242544781 11.9420452528695371 25.2452222023819637
 24.2370125242544781 11.9420452528695371 28.0170807846332295
 27.0589694592957635 11.9420452528695371 16.9296464556281663
 27.0589694592957635 11.9420452528695371 19.7015050378794321
 27.0589694592957635 11.9420452528695371 22.4733636201306979
 27.0589694592957635 11.9420452528695371 25.2452222023819637
 27.0589694592957635 11.9420452528695371 28.0170807846332295
 29.8809263943370489 11.9420452528695371 16.9296464556281663
 29.8809263943370489 11.9420452528695371 19.7015050378794321
 29.8809263943370489 11.9420452528695371 22.4733636201306979
 29.8809263943370489 11.9420452528695371 25.2452222023819637
 29.8809263943370489 11.9420452528695371 28.0170807846332295
 30.7529590446590468 14.6258857846448507 16.9296464556281663
 30.7529590446590468 14.6258857846448507 19.7015050378794321
 30.7529590446590468 14.6258857846448507 22.4733636201306979
 30.7529590446590468 14.6258857846448507 25.2452222023819637
 30.7529590446590468 14.6258857846448507 28.0170807846332295
 31.6249916949810448 17.3097263164201642 16.9296464556281663
 31.6249916949810448 17.3097263164201642 19.7015050378794321
 31.6249916949810448 17.3097263164201642 22.4733636201306979
 31.6249916949810448 17.3097263164201642 25.2452222023819637
 31.6249916949810448 17.3097263164201642 28.0170807846332295
 32.4970243453030392 19.9935668481954778 16.9296464556281663
 32.4970243453030392 19.9935668481954778 19.7015050378794321
 32.4970243453030392 19.9935668481954778 22.4733636201306979
 32.4970243453030392 19.9935668481954778 25.2452222023819637
 32.4970243453030392 19.9935668481954778 28.0170807846332295
 33.3690569956250371 22.6774073799707914 16.9296464556281663
 33.3690569956250371 22.6774073799707914 19.7015050378794321
 33.3690569956250371 22.6774073799707914 22.4733636201306979
 33.3690569956250371 22.6774073799707914 25.2452222023819637
 33.3690569956250371 22.6774073799707914 28.0170807846332295
 34.2410896459470351 27.7617478596736191 18.3155757467537974
 34.2410896459470351 27.7617478596736191 21.0874343290050632