Au 
 1.0000000000000000
    49.6362301525297411    0.0000000000000000    0.0000000000000000
     0.0000000000000000   48.1857298049863232    0.0000000000000000
     0.0000000000000000    0.0000000000000000   43.0799653379289111
 Au 
 524
Cartesian
 24.8181150762648741 24.1491868423351903 10.0000000000000000
 24.8181150762648741 24.1491868423351903 12.8849956672411139
 24.8181150762648741 24.1491868423351903 15.7699913344822278
 24.8181150762648741 24.1491868423351903 18.6549870017233417
 24.8181150762648741 24.1491868423351903 21.5399826689644556
 24.8181150762648741 24.1491868423351903 24.4249783362055695
 24.8181150762648741 24.1491868423351903 27.3099740034466834
 24.8181150762648741 24.1491868423351903 30.1949696706877972
 24.8181150762648741 24.1491868423351903 33.0799653379289111
 27.1943103213663981 24.9212594795636520 11.4424978336205569
 27.1943103213663981 24.9212594795636520 14.3274935008616708
 27.1943103213663981 24.9212594795636520 17.2124891681027847
 27.1943103213663981 24.9212594795636520 20.0974848353438986
 27.1943103213663981 24.9212594795636520 22.9824805025850125
 27.1943103213663981 24.9212594795636520 25.8674761698261264
 27.1943103213663981 24.9212594795636520 28.7524718370672403
 27.1943103213663981 24.9212594795636520 31.6374675043083542
 24.8181150762648741 26.6476663799740336 11.4424978336205569
 24.8181150762648741 26.6476663799740336 14.3274935008616708
 24.8181150762648741 26.6476663799740336 17.2124891681027847
 24.8181150762648741 26.6476663799740336 20.0974848353438986
 24.8181150762648741 26.6476663799740336 22.9824805025850125
 24.8181150762648741 26.6476663799740336 25.8674761698261264
 24.8181150762648741 26.6476663799740336 28.7524718370672403
 24.8181150762648741 26.6476663799740336 31.6374675043083542
 22.4419198311633501 24.9212594795636520 11.4424978336205569
 22.4419198311633501 24.9212594795636520 14.3274935008616708
 22.4419198311633501 24.9212594795636520 17.2124891681027847
 22.4419198311633501 24.9212594795636520 20.0974848353438986
 22.4419198311633501 24.9212594795636520 22.9824805025850125
 22.4419198311633501 24.9212594795636520 25.8674761698261264
 22.4419198311633501 24.9212594795636520 28.7524718370672403
 22.4419198311633501 24.9212594795636520 31.6374675043083542
 23.3495456508862453 22.1278744362873070 11.4424978336205569
 23.3495456508862453 22.1278744362873070 14.3274935008616708
 23.3495456508862453 22.1278744362873070 17.2124891681027847
 23.3495456508862453 22.1278744362873070 20.0974848353438986
 23.3495456508862453 22.1278744362873070 22.9824805025850125
 23.3495456508862453 22.1278744362873070 25.8674761698261264
 23.3495456508862453 22.1278744362873070 28.7524718370672403
 23.3495456508862453 22.1278744362873070 31.6374675043083542
 26.2866845016435029 22.1278744362873070 11.4424978336205569
 26.2866845016435029 22.1278744362873070 14.3274935008616708
 26.2866845016435029 22.1278744362873070 17.2124891681027847
 26.2866845016435029 22.1278744362873070 20.0974848353438986
 26.2866845016435029 22.1278744362873070 22.9824805025850125
 26.2866845016435029 22.1278744362873070 25.8674761698261264
 26.2866845016435029 22.1278744362873070 28.7524718370672403
 26.2866845016435029 22.1278744362873070 31.6374675043083542
 29.5705055664679186 25.6933321167921136 12.8849956672411139
 29.5705055664679186 25.6933321167921136 15.7699913344822278
 29.5705055664679186 25.6933321167921136 18.6549870017233417
 29.5705055664679186 25.6933321167921136 21.5399826689644556
 29.5705055664679186 25.6933321167921136 24.4249783362055695
 29.5705055664679186 25.6933321167921136 27.3099740034466834
 29.5705055664679186 25.6933321167921136 30.1949696706877972
 27.1943103213663981 27.4197390172024953 12.8849956672411139
 27.1943103213663981 27.4197390172024953 15.7699913344822278
 27.1943103213663981 27.4197390172024953 18.6549870017233417
 27.1943103213663981 27.4197390172024953 21.5399826689644556
 27.1943103213663981 27.4197390172024953 24.4249783362055695
 27.1943103213663981 27.4197390172024953 27.3099740034466834
 27.1943103213663981 27.4197390172024953 30.1949696706877972
 24.8181150762648741 29.1461459176128734 12.8849956672411139
 24.8181150762648741 29.1461459176128734 15.7699913344822278
 24.8181150762648741 29.1461459176128734 18.6549870017233417
 24.8181150762648741 29.1461459176128734 21.5399826689644556
 24.8181150762648741 29.1461459176128734 24.4249783362055695
 24.8181150762648741 29.1461459176128734 27.3099740034466834
 24.8181150762648741 29.1461459176128734 30.1949696706877972
 22.4419198311633501 27.4197390172024953 12.8849956672411139
 22.4419198311633501 27.4197390172024953 15.7699913344822278
 22.4419198311633501 27.4197390172024953 18.6549870017233417
 22.4419198311633501 27.4197390172024953 21.5399826689644556
 22.4419198311633501 27.4197390172024953 24.4249783362055695
 22.4419198311633501 27.4197390172024953 27.3099740034466834
 22.4419198311633501 27.4197390172024953 30.1949696706877972
 20.0657245860618296 25.6933321167921171 12.8849956672411139
 20.0657245860618296 25.6933321167921171 15.7699913344822278
 20.0657245860618296 25.6933321167921171 18.6549870017233417
 20.0657245860618296 25.6933321167921171 21.5399826689644556
 20.0657245860618296 25.6933321167921171 24.4249783362055695
 20.0657245860618296 25.6933321167921171 27.3099740034466834
 20.0657245860618296 25.6933321167921171 30.1949696706877972
 20.9733504057847213 22.8999470735157686 12.8849956672411139
 20.9733504057847213 22.8999470735157686 15.7699913344822278
 20.9733504057847213 22.8999470735157686 18.6549870017233417
 20.9733504057847213 22.8999470735157686 21.5399826689644556
 20.9733504057847213 22.8999470735157686 24.4249783362055695
 20.9733504057847213 22.8999470735157686 27.3099740034466834
 20.9733504057847213 22.8999470735157686 30.1949696706877972
 21.8809762255076166 20.1065620302394237 12.8849956672411139
 21.8809762255076166 20.1065620302394237 15.7699913344822278
 21.8809762255076166 20.1065620302394237 18.6549870017233417
 21.8809762255076166 20.1065620302394237 21.5399826689644556
 21.8809762255076166 20.1065620302394237 24.4249783362055695
 21.8809762255076166 20.1065620302394237 27.3099740034466834
 21.8809762255076166 20.1065620302394237 30.1949696706877972
 24.8181150762648741 20.1065620302394237 12.8849956672411139
 24.8181150762648741 20.1065620302394237 15.7699913344822278
 24.8181150762648741 20.1065620302394237 18.6549870017233417
 24.8181150762648741 20.1065620302394237 21.5399826689644556
 24.8181150762648741 20.1065620302394237 24.4249783362055695
 24.8181150762648741 20.1065620302394237 27.3099740034466834
 24.8181150762648741 20.1065620302394237 30.1949696706877972
 27.7552539270221281 20.1065620302394237 12.8849956672411139
 27.7552539270221281 20.1065620302394237 15.7699913344822278
 27.7552539270221281 20.1065620302394237 18.6549870017233417
 27.7552539270221281 20.1065620302394237 21.5399826689644556
 27.7552539270221281 20.1065620302394237 24.4249783362055695
 27.7552539270221281 20.1065620302394237 27.3099740034466834
 27.7552539270221281 20.1065620302394237 30.1949696706877972
 28.6628797467450234 22.8999470735157686 12.8849956672411139
 28.6628797467450234 22.8999470735157686 15.7699913344822278
 28.6628797467450234 22.8999470735157686 18.6549870017233417
 28.6628797467450234 22.8999470735157686 21.5399826689644556
 28.6628797467450234 22.8999470735157686 24.4249783362055695
 28.6628797467450234 22.8999470735157686 27.3099740034466834
 28.6628797467450234 22.8999470735157686 30.1949696706877972
 31.9467008115694426 26.4654047540205788 14.3274935008616708
 31.9467008115694426 26.4654047540205788 17.2124891681027847
 31.9467008115694426 26.4654047540205788 20.0974848353438986
 31.9467008115694426 26.4654047540205788 22.9824805025850125
 31.9467008115694426 26.4654047540205788 25.8674761698261264
 31.9467008115694426 26.4654047540205788 28.7524718370672403
 29.5705055664679186 28.1918116544309569 14.3274935008616708
 29.5705055664679186 28.1918116544309569 17.2124891681027847
 29.5705055664679186 28.1918116544309569 20.0974848353438986
 29.5705055664679186 28.1918116544309569 22.9824805025850125
 29.5705055664679186 28.1918116544309569 25.8674761698261264
 29.5705055664679186 28.1918116544309569 28.7524718370672403
 27.1943103213663981 29.9182185548413351 14.3274935008616708
 27.1943103213663981 29.9182185548413351 17.2124891681027847
 27.1943103213663981 29.9182185548413351 20.0974848353438986
 27.1943103213663981 29.9182185548413351 22.9824805025850125
 27.1943103213663981 29.9182185548413351 25.8674761698261264
 27.1943103213663981 29.9182185548413351 28.7524718370672403
 24.8181150762648741 31.6446254552517132 14.3274935008616708
 24.8181150762648741 31.6446254552517132 17.2124891681027847
 24.8181150762648741 31.6446254552517132 20.0974848353438986
 24.8181150762648741 31.6446254552517132 22.9824805025850125
 24.8181150762648741 31.6446254552517132 25.8674761698261264
 24.8181150762648741 31.6446254552517132 28.7524718370672403
 22.4419198311633536 29.9182185548413386 14.3274935008616708
 22.4419198311633536 29.9182185548413386 17.2124891681027847
 22.4419198311633536 29.9182185548413386 20.0974848353438986
 22.4419198311633536 29.9182185548413386 22.9824805025850125
 22.4419198311633536 29.9182185548413386 25.8674761698261264
 22.4419198311633536 29.9182185548413386 28.7524718370672403
 20.0657245860618296 28.1918116544309569 14.3274935008616708
 20.0657245860618296 28.1918116544309569 17.2124891681027847
 20.0657245860618296 28.1918116544309569 20.0974848353438986
 20.0657245860618296 28.1918116544309569 22.9824805025850125
 20.0657245860618296 28.1918116544309569 25.8674761698261264
 20.0657245860618296 28.1918116544309569 28.7524718370672403
 17.6895293409603056 26.4654047540205788 14.3274935008616708
 17.6895293409603056 26.4654047540205788 17.2124891681027847
 17.6895293409603056 26.4654047540205788 20.0974848353438986
 17.6895293409603056 26.4654047540205788 22.9824805025850125
 17.6895293409603056 26.4654047540205788 25.8674761698261264
 17.6895293409603056 26.4654047540205788 28.7524718370672403
 18.5971551606832008 23.6720197107442338 14.3274935008616708
 18.5971551606832008 23.6720197107442338 17.2124891681027847
 18.5971551606832008 23.6720197107442338 20.0974848353438986
 18.5971551606832008 23.6720197107442338 22.9824805025850125
 18.5971551606832008 23.6720197107442338 25.8674761698261264
 18.5971551606832008 23.6720197107442338 28.7524718370672403
 19.5047809804060961 20.8786346674678853 14.3274935008616708
 19.5047809804060961 20.8786346674678853 17.2124891681027847
 19.5047809804060961 20.8786346674678853 20.0974848353438986
 19.5047809804060961 20.8786346674678853 22.9824805025850125
 19.5047809804060961 20.8786346674678853 25.8674761698261264
 19.5047809804060961 20.8786346674678853 28.7524718370672403
 20.4124068001289913 18.0852496241915404 14.3274935008616708
 20.4124068001289913 18.0852496241915404 17.2124891681027847
 20.4124068001289913 18.0852496241915404 20.0974848353438986
 20.4124068001289913 18.0852496241915404 22.9824805025850125
 20.4124068001289913 18.0852496241915404 25.8674761698261264
 20.4124068001289913 18.0852496241915404 28.7524718370672403
 23.3495456508862453 18.0852496241915404 14.3274935008616708
 23.3495456508862453 18.0852496241915404 17.2124891681027847
 23.3495456508862453 18.0852496241915404 20.0974848353438986
 23.3495456508862453 18.0852496241915404 22.9824805025850125
 23.3495456508862453 18.0852496241915404 25.8674761698261264
 23.3495456508862453 18.0852496241915404 28.7524718370672403
 26.2866845016434993 18.0852496241915404 14.3274935008616708
 26.2866845016434993 18.0852496241915404 17.2124891681027847
 26.2866845016434993 18.0852496241915404 20.0974848353438986
 26.2866845016434993 18.0852496241915404 22.9824805025850125
 26.2866845016434993 18.0852496241915404 25.8674761698261264
 26.2866845016434993 18.0852496241915404 28.7524718370672403
 29.2238233524007569 18.0852496241915368 14.3274935008616708
 29.2238233524007569 18.0852496241915368 17.2124891681027847
 29.2238233524007569 18.0852496241915368 20.0974848353438986
 29.2238233524007569 18.0852496241915368 22.9824805025850125
 29.2238233524007569 18.0852496241915368 25.8674761698261264
 29.2238233524007569 18.0852496241915368 28.7524718370672403
 30.1314491721236521 20.8786346674678853 14.3274935008616708
 30.1314491721236521 20.8786346674678853 17.2124891681027847
 30.1314491721236521 20.8786346674678853 20.0974848353438986
 30.1314491721236521 20.8786346674678853 22.9824805025850125
 30.1314491721236521 20.8786346674678853 25.8674761698261264
 30.1314491721236521 20.8786346674678853 28.7524718370672403
 31.0390749918465474 23.6720197107442303 14.3274935008616708
 31.0390749918465474 23.6720197107442303 17.2124891681027847
 31.0390749918465474 23.6720197107442303 20.0974848353438986
 31.0390749918465474 23.6720197107442303 22.9824805025850125
 31.0390749918465474 23.6720197107442303 25.8674761698261264
 31.0390749918465474 23.6720197107442303 28.7524718370672403
 34.3228960566709631 27.2374773912490404 15.7699913344822278
 34.3228960566709631 27.2374773912490404 18.6549870017233417
 34.3228960566709631 27.2374773912490404 21.5399826689644556
 34.3228960566709631 27.2374773912490404 24.4249783362055695
 34.3228960566709631 27.2374773912490404 27.3099740034466834
 31.9467008115694426 28.9638842916594186 15.7699913344822278
 31.9467008115694426 28.9638842916594186 18.6549870017233417
 31.9467008115694426 28.9638842916594186 21.5399826689644556
 31.9467008115694426 28.9638842916594186 24.4249783362055695
 31.9467008115694426 28.9638842916594186 27.3099740034466834
 29.5705055664679186 30.6902911920698003 15.7699913344822278
 29.5705055664679186 30.6902911920698003 18.6549870017233417
 29.5705055664679186 30.6902911920698003 21.5399826689644556
 29.5705055664679186 30.6902911920698003 24.4249783362055695
 29.5705055664679186 30.6902911920698003 27.3099740034466834
 27.1943103213663981 32.4166980924801749 15.7699913344822278
 27.1943103213663981 32.4166980924801749 18.6549870017233417
 27.1943103213663981 32.4166980924801749 21.5399826689644556
 27.1943103213663981 32.4166980924801749 24.4249783362055695
 27.1943103213663981 32.4166980924801749 27.3099740034466834
 24.8181150762648741 34.1431049928905566 15.7699913344822278
 24.8181150762648741 34.1431049928905566 18.6549870017233417
 24.8181150762648741 34.1431049928905566 21.5399826689644556
 24.8181150762648741 34.1431049928905566 24.4249783362055695
 24.8181150762648741 34.1431049928905566 27.3099740034466834
 22.4419198311633536 32.4166980924801749 15.7699913344822278
 22.4419198311633536 32.4166980924801749 18.6549870017233417
 22.4419198311633536 32.4166980924801749 21.5399826689644556
 22.4419198311633536 32.4166980924801749 24.4249783362055695
 22.4419198311633536 32.4166980924801749 27.3099740034466834
 20.0657245860618296 30.6902911920698003 15.7699913344822278
 20.0657245860618296 30.6902911920698003 18.6549870017233417
 20.0657245860618296 30.6902911920698003 21.5399826689644556
 20.0657245860618296 30.6902911920698003 24.4249783362055695
 20.0657245860618296 30.6902911920698003 27.3099740034466834
 17.6895293409603056 28.9638842916594221 15.7699913344822278
 17.6895293409603056 28.9638842916594221 18.6549870017233417
 17.6895293409603056 28.9638842916594221 21.5399826689644556
 17.6895293409603056 28.9638842916594221 24.4249783362055695
 17.6895293409603056 28.9638842916594221 27.3099740034466834
 15.3133340958587834 27.2374773912490440 15.7699913344822278
 15.3133340958587834 27.2374773912490440 18.6549870017233417
 15.3133340958587834 27.2374773912490440 21.5399826689644556
 15.3133340958587834 27.2374773912490440 24.4249783362055695
 15.3133340958587834 27.2374773912490440 27.3099740034466834
 16.2209599155816768 24.4440923479726955 15.7699913344822278
 16.2209599155816768 24.4440923479726955 18.6549870017233417
 16.2209599155816768 24.4440923479726955 21.5399826689644556
 16.2209599155816768 24.4440923479726955 24.4249783362055695
 16.2209599155816768 24.4440923479726955 27.3099740034466834
 17.1285857353045721 21.6507073046963505 15.7699913344822278
 17.1285857353045721 21.6507073046963505 18.6549870017233417
 17.1285857353045721 21.6507073046963505 21.5399826689644556
 17.1285857353045721 21.6507073046963505 24.4249783362055695
 17.1285857353045721 21.6507073046963505 27.3099740034466834
 18.0362115550274673 18.8573222614200020 15.7699913344822278
 18.0362115550274673 18.8573222614200020 18.6549870017233417
 18.0362115550274673 18.8573222614200020 21.5399826689644556
 18.0362115550274673 18.8573222614200020 24.4249783362055695
 18.0362115550274673 18.8573222614200020 27.3099740034466834
 18.9438373747503590 16.0639372181436570 15.7699913344822278
 18.9438373747503590 16.0639372181436570 18.6549870017233417
 18.9438373747503590 16.0639372181436570 21.5399826689644556
 18.9438373747503590 16.0639372181436570 24.4249783362055695
 18.9438373747503590 16.0639372181436570 27.3099740034466834
 21.8809762255076166 16.0639372181436535 15.7699913344822278
 21.8809762255076166 16.0639372181436535 18.6549870017233417
 21.8809762255076166 16.0639372181436535 21.5399826689644556
 21.8809762255076166 16.0639372181436535 24.4249783362055695
 21.8809762255076166 16.0639372181436535 27.3099740034466834
 24.8181150762648741 16.0639372181436535 15.7699913344822278
 24.8181150762648741 16.0639372181436535 18.6549870017233417
 24.8181150762648741 16.0639372181436535 21.5399826689644556
 24.8181150762648741 16.0639372181436535 24.4249783362055695
 24.8181150762648741 16.0639372181436535 27.3099740034466834
 27.7552539270221281 16.0639372181436535 15.7699913344822278
 27.7552539270221281 16.0639372181436535 18.6549870017233417
 27.7552539270221281 16.0639372181436535 21.5399826689644556
 27.7552539270221281 16.0639372181436535 24.4249783362055695
 27.7552539270221281 16.0639372181436535 27.3099740034466834
 30.6923927777793857 16.0639372181436535 15.7699913344822278
 30.6923927777793857 16.0639372181436535 18.6549870017233417
 30.6923927777793857 16.0639372181436535 21.5399826689644556
 30.6923927777793857 16.0639372181436535 24.4249783362055695
 30.6923927777793857 16.0639372181436535 27.3099740034466834
 31.6000185975022774 18.8573222614200020 15.7699913344822278
 31.6000185975022774 18.8573222614200020 18.6549870017233417
 31.6000185975022774 18.8573222614200020 21.5399826689644556
 31.6000185975022774 18.8573222614200020 24.4249783362055695
 31.6000185975022774 18.8573222614200020 27.3099740034466834
 32.5076444172251726 21.6507073046963470 15.7699913344822278
 32.5076444172251726 21.6507073046963470 18.6549870017233417
 32.5076444172251726 21.6507073046963470 21.5399826689644556
 32.5076444172251726 21.6507073046963470 24.4249783362055695
 32.5076444172251726 21.6507073046963470 27.3099740034466834
 33.4152702369480679 24.4440923479726919 15.7699913344822278
 33.4152702369480679 24.4440923479726919 18.6549870017233417
 33.4152702369480679 24.4440923479726919 21.5399826689644556
 33.4152702369480679 24.4440923479726919 24.4249783362055695
 33.4152702369480679 24.4440923479726919 27.3099740034466834
 36.6990913017724836 28.0095500284775021 17.2124891681027847
 36.6990913017724836 28.0095500284775021 20.0974848353438986
 36.6990913017724836 28.0095500284775021 22.9824805025850125
 36.6990913017724836 28.0095500284775021 25.8674761698261264
 34.3228960566709631 29.7359569288878802 17.2124891681027847
 34.3228960566709631 29.7359569288878802 20.0974848353438986
 34.3228960566709631 29.7359569288878802 22.9824805025850125
 34.3228960566709631 29.7359569288878802 25.8674761698261264
 31.9467008115694426 31.4623638292982619 17.2124891681027847
 31.9467008115694426 31.4623638292982619 20.0974848353438986
 31.9467008115694426 31.4623638292982619 22.9824805025850125
 31.9467008115694426 31.4623638292982619 25.8674761698261264
 29.5705055664679222 33.1887707297086365 17.2124891681027847
 29.5705055664679222 33.1887707297086365 20.0974848353438986
 29.5705055664679222 33.1887707297086365 22.9824805025850125
 29.5705055664679222 33.1887707297086365 25.8674761698261264
 27.1943103213663981 34.9151776301190182 17.2124891681027847
 27.1943103213663981 34.9151776301190182 20.0974848353438986
 27.1943103213663981 34.9151776301190182 22.9824805025850125
 27.1943103213663981 34.9151776301190182 25.8674761698261264
 24.8181150762648741 36.6415845305293999 17.2124891681027847
 24.8181150762648741 36.6415845305293999 20.0974848353438986
 24.8181150762648741 36.6415845305293999 22.9824805025850125
 24.8181150762648741 36.6415845305293999 25.8674761698261264
 22.4419198311633536 34.9151776301190182 17.2124891681027847
 22.4419198311633536 34.9151776301190182 20.0974848353438986
 22.4419198311633536 34.9151776301190182 22.9824805025850125
 22.4419198311633536 34.9151776301190182 25.8674761698261264
 20.0657245860618296 33.1887707297086436 17.2124891681027847
 20.0657245860618296 33.1887707297086436 20.0974848353438986
 20.0657245860618296 33.1887707297086436 22.9824805025850125
 20.0657245860618296 33.1887707297086436 25.8674761698261264
 17.6895293409603056 31.4623638292982619 17.2124891681027847
 17.6895293409603056 31.4623638292982619 20.0974848353438986
 17.6895293409603056 31.4623638292982619 22.9824805025850125
 17.6895293409603056 31.4623638292982619 25.8674761698261264
 15.3133340958587834 29.7359569288878873 17.2124891681027847
 15.3133340958587834 29.7359569288878873 20.0974848353438986
 15.3133340958587834 29.7359569288878873 22.9824805025850125
 15.3133340958587834 29.7359569288878873 25.8674761698261264
 12.9371388507572611 28.0095500284775056 17.2124891681027847
 12.9371388507572611 28.0095500284775056 20.0974848353438986
 12.9371388507572611 28.0095500284775056 22.9824805025850125
 12.9371388507572611 28.0095500284775056 25.8674761698261264
 13.8447646704801546 25.2161649852011607 17.2124891681027847
 13.8447646704801546 25.2161649852011607 20.0974848353438986
 13.8447646704801546 25.2161649852011607 22.9824805025850125
 13.8447646704801546 25.2161649852011607 25.8674761698261264
 14.7523904902030480 22.4227799419248122 17.2124891681027847
 14.7523904902030480 22.4227799419248122 20.0974848353438986
 14.7523904902030480 22.4227799419248122 22.9824805025850125
 14.7523904902030480 22.4227799419248122 25.8674761698261264
 15.6600163099259433 19.6293948986484637 17.2124891681027847
 15.6600163099259433 19.6293948986484637 20.0974848353438986
 15.6600163099259433 19.6293948986484637 22.9824805025850125
 15.6600163099259433 19.6293948986484637 25.8674761698261264
 16.5676421296488385 16.8360098553721187 17.2124891681027847
 16.5676421296488385 16.8360098553721187 20.0974848353438986
 16.5676421296488385 16.8360098553721187 22.9824805025850125
 16.5676421296488385 16.8360098553721187 25.8674761698261264
 17.4752679493717338 14.0426248120957720 17.2124891681027847
 17.4752679493717338 14.0426248120957720 20.0974848353438986
 17.4752679493717338 14.0426248120957720 22.9824805025850125
 17.4752679493717338 14.0426248120957720 25.8674761698261264
 20.4124068001289878 14.0426248120957702 17.2124891681027847
 20.4124068001289878 14.0426248120957702 20.0974848353438986
 20.4124068001289878 14.0426248120957702 22.9824805025850125
 20.4124068001289878 14.0426248120957702 25.8674761698261264
 23.3495456508862453 14.0426248120957702 17.2124891681027847
 23.3495456508862453 14.0426248120957702 20.0974848353438986
 23.3495456508862453 14.0426248120957702 22.9824805025850125
 23.3495456508862453 14.0426248120957702 25.8674761698261264
 26.2866845016434993 14.0426248120957702 17.2124891681027847
 26.2866845016434993 14.0426248120957702 20.0974848353438986
 26.2866845016434993 14.0426248120957702 22.9824805025850125
 26.2866845016434993 14.0426248120957702 25.8674761698261264
 29.2238233524007569 14.0426248120957702 17.2124891681027847
 29.2238233524007569 14.0426248120957702 20.0974848353438986
 29.2238233524007569 14.0426248120957702 22.9824805025850125
 29.2238233524007569 14.0426248120957702 25.8674761698261264
 32.1609622031580145 14.0426248120957702 17.2124891681027847
 32.1609622031580145 14.0426248120957702 20.0974848353438986
 32.1609622031580145 14.0426248120957702 22.9824805025850125
 32.1609622031580145 14.0426248120957702 25.8674761698261264
 33.0685880228809097 16.8360098553721151 17.2124891681027847
 33.0685880228809097 16.8360098553721151 20.0974848353438986
 33.0685880228809097 16.8360098553721151 22.9824805025850125
 33.0685880228809097 16.8360098553721151 25.8674761698261264
 33.9762138426037978 19.6293948986484637 17.2124891681027847
 33.9762138426037978 19.6293948986484637 20.0974848353438986
 33.9762138426037978 19.6293948986484637 22.9824805025850125
 33.9762138426037978 19.6293948986484637 25.8674761698261264
 34.8838396623267002 22.4227799419248086 17.2124891681027847
 34.8838396623267002 22.4227799419248086 20.0974848353438986
 34.8838396623267002 22.4227799419248086 22.9824805025850125
 34.8838396623267002 22.4227799419248086 25.8674761698261264
 35.7914654820495883 25.2161649852011571 17.2124891681027847
 35.7914654820495883 25.2161649852011571 20.0974848353438986
 35.7914654820495883 25.2161649852011571 22.9824805025850125
 35.7914654820495883 25.2161649852011571 25.8674761698261264
 36.6990913017724836 30.5080295661163454 18.6549870017233417
 36.6990913017724836 30.5080295661163454 21.5399826689644556
 36.6990913017724836 30.5080295661163454 24.4249783362055695
 34.3228960566709631 32.2344364665267236 18.6549870017233417
 34.3228960566709631 32.2344364665267236 21.5399826689644556
 34.3228960566709631 32.2344364665267236 24.4249783362055695
 31.9467008115694426 33.9608433669370982 18.6549870017233417
 31.9467008115694426 33.9608433669370982 21.5399826689644556
 31.9467008115694426 33.9608433669370982 24.4249783362055695
 29.5705055664679222 35.6872502673474798 18.6549870017233417
 29.5705055664679222 35.6872502673474798 21.5399826689644556
 29.5705055664679222 35.6872502673474798 24.4249783362055695
 27.1943103213663981 37.4136571677578615 18.6549870017233417
 27.1943103213663981 37.4136571677578615 21.5399826689644556
 27.1943103213663981 37.4136571677578615 24.4249783362055695
 22.4419198311633536 37.4136571677578615 18.6549870017233417
 22.4419198311633536 37.4136571677578615 21.5399826689644556
 22.4419198311633536 37.4136571677578615 24.4249783362055695
 20.0657245860618296 35.6872502673474798 18.6549870017233417
 20.0657245860618296 35.6872502673474798 21.5399826689644556
 20.0657245860618296 35.6872502673474798 24.4249783362055695
 17.6895293409603056 33.9608433669371053 18.6549870017233417
 17.6895293409603056 33.9608433669371053 21.5399826689644556
 17.6895293409603056 33.9608433669371053 24.4249783362055695
 15.3133340958587834 32.2344364665267307 18.6549870017233417
 15.3133340958587834 32.2344364665267307 21.5399826689644556
 15.3133340958587834 32.2344364665267307 24.4249783362055695
 12.9371388507572611 30.5080295661163490 18.6549870017233417
 12.9371388507572611 30.5080295661163490 21.5399826689644556
 12.9371388507572611 30.5080295661163490 24.4249783362055695
 11.4685694253786323 25.9882376224296223 18.6549870017233417
 11.4685694253786323 25.9882376224296223 21.5399826689644556
 11.4685694253786323 25.9882376224296223 24.4249783362055695
 12.3761952451015276 23.1948525791532774 18.6549870017233417
 12.3761952451015276 23.1948525791532774 21.5399826689644556
 12.3761952451015276 23.1948525791532774 24.4249783362055695
 13.2838210648244210 20.4014675358769288 18.6549870017233417
 13.2838210648244210 20.4014675358769288 21.5399826689644556
 13.2838210648244210 20.4014675358769288 24.4249783362055695
 14.1914468845473145 17.6080824926005803 18.6549870017233417
 14.1914468845473145 17.6080824926005803 21.5399826689644556
 14.1914468845473145 17.6080824926005803 24.4249783362055695
 15.0990727042702098 14.8146974493242354 18.6549870017233417
 15.0990727042702098 14.8146974493242354 21.5399826689644556
 15.0990727042702098 14.8146974493242354 24.4249783362055695
 18.9438373747503590 12.0213124060478869 18.6549870017233417
 18.9438373747503590 12.0213124060478869 21.5399826689644556
 18.9438373747503590 12.0213124060478869 24.4249783362055695
 21.8809762255076166 12.0213124060478869 18.6549870017233417
 21.8809762255076166 12.0213124060478869 21.5399826689644556
 21.8809762255076166 12.0213124060478869 24.4249783362055695
 24.8181150762648741 12.0213124060478869 18.6549870017233417
 24.8181150762648741 12.0213124060478869 21.5399826689644556
 24.8181150762648741 12.0213124060478869 24.4249783362055695
 27.7552539270221281 12.0213124060478869 18.6549870017233417
 27.7552539270221281 12.0213124060478869 21.5399826689644556
 27.7552539270221281 12.0213124060478869 24.4249783362055695
 30.6923927777793821 12.0213124060478869 18.6549870017233417
 30.6923927777793821 12.0213124060478869 21.5399826689644556
 30.6923927777793821 12.0213124060478869 24.4249783362055695
 34.5371574482595349 14.8146974493242318 18.6549870017233417
 34.5371574482595349 14.8146974493242318 21.5399826689644556
 34.5371574482595349 14.8146974493242318 24.4249783362055695
 35.4447832679824302 17.6080824926005803 18.6549870017233417
 35.4447832679824302 17.6080824926005803 21.5399826689644556
 35.4447832679824302 17.6080824926005803 24.4249783362055695
 36.3524090877053254 20.4014675358769253 18.6549870017233417
 36.3524090877053254 20.4014675358769253 21.5399826689644556
 36.3524090877053254 20.4014675358769253 24.4249783362055695
 37.2600349074282207 23.1948525791532703 18.6549870017233417
 37.2600349074282207 23.1948525791532703 21.5399826689644556
 37.2600349074282207 23.1948525791532703 24.4249783362055695
 38.1676607271511159 25.9882376224296188 18.6549870017233417
 38.1676607271511159 25.9882376224296188 21.5399826689644556
 38.1676607271511159 25.9882376224296188 24.4249783362055695
 36.6990913017724836 33.0065091037551852 20.0974848353438986
 36.6990913017724836 33.0065091037551852 22.9824805025850125
 34.3228960566709631 34.7329160041655669 20.0974848353438986