Au 
 1.0000000000000000
    36.3200000000000003    0.0000000000000000    0.0000000000000000
     0.0000000000000000   36.3200000000000003    0.0000000000000000
     0.0000000000000000    0.0000000000000000   36.3200000000000003
 Au 
 140
Cartesian
 10.0000000000000000 16.1200000000000010 18.1600000000000001
 10.0000000000000000 18.1600000000000001 16.1200000000000010
 10.0000000000000000 18.1600000000000001 20.2000000000000028
 10.0000000000000000 20.2000000000000028 18.1600000000000001
 12.0400000000000009 14.0800000000000018 18.1600000000000001
 14.0800000000000018 12.0400000000000009 18.1600000000000001
 14.0800000000000018 14.0800000000000018 16.1200000000000010
 14.0800000000000018 14.0800000000000018 20.2000000000000028
 12.0400000000000009 18.1600000000000001 14.0800000000000018
 14.0800000000000018 16.1200000000000010 14.0800000000000018
 14.0800000000000018 18.1600000000000001 12.0400000000000009
 12.0400000000000009 16.1200000000000010 16.1200000000000010
 12.0400000000000009 18.1600000000000001 18.1600000000000001
 14.0800000000000018 16.1200000000000010 18.1600000000000001
 14.0800000000000018 18.1600000000000001 16.1200000000000010
 12.0400000000000009 16.1200000000000010 20.2000000000000028
 12.0400000000000009 18.1600000000000001 22.2400000000000020
 14.0800000000000018 16.1200000000000010 22.2400000000000020
 14.0800000000000018 18.1600000000000001 20.2000000000000028
 14.0800000000000018 18.1600000000000001 24.2800000000000011
 14.0800000000000018 20.2000000000000028 14.0800000000000018
 12.0400000000000009 20.2000000000000028 16.1200000000000010
 12.0400000000000009 22.2400000000000020 18.1600000000000001
 14.0800000000000018 20.2000000000000028 18.1600000000000001
 14.0800000000000018 22.2400000000000020 16.1200000000000010
 12.0400000000000009 20.2000000000000028 20.2000000000000028
 14.0800000000000018 20.2000000000000028 22.2400000000000020
 14.0800000000000018 22.2400000000000020 20.2000000000000028
 14.0800000000000018 24.2800000000000011 18.1600000000000001
 16.1200000000000010 10.0000000000000000 18.1600000000000001
 18.1600000000000001 10.0000000000000000 16.1200000000000010
 18.1600000000000001 10.0000000000000000 20.2000000000000028
 16.1200000000000010 14.0800000000000018 14.0800000000000018
 18.1600000000000001 12.0400000000000009 14.0800000000000018
 18.1600000000000001 14.0800000000000018 12.0400000000000009
 16.1200000000000010 12.0400000000000009 16.1200000000000010
 16.1200000000000010 14.0800000000000018 18.1600000000000001
 18.1600000000000001 12.0400000000000009 18.1600000000000001
 18.1600000000000001 14.0800000000000018 16.1200000000000010
 16.1200000000000010 12.0400000000000009 20.2000000000000028
 16.1200000000000010 14.0800000000000018 22.2400000000000020
 18.1600000000000001 12.0400000000000009 22.2400000000000020
 18.1600000000000001 14.0800000000000018 20.2000000000000028
 18.1600000000000001 14.0800000000000018 24.2800000000000011
 16.1200000000000010 18.1600000000000001 10.0000000000000000
 18.1600000000000001 16.1200000000000010 10.0000000000000000
 16.1200000000000010 16.1200000000000010 12.0400000000000009
 16.1200000000000010 18.1600000000000001 14.0800000000000018
 18.1600000000000001 16.1200000000000010 14.0800000000000018
 18.1600000000000001 18.1600000000000001 12.0400000000000009
 16.1200000000000010 16.1200000000000010 16.1200000000000010
 16.1200000000000010 18.1600000000000001 18.1600000000000001
 18.1600000000000001 16.1200000000000010 18.1600000000000001
 18.1600000000000001 18.1600000000000001 16.1200000000000010
 16.1200000000000010 16.1200000000000010 20.2000000000000028
 16.1200000000000010 18.1600000000000001 22.2400000000000020
 18.1600000000000001 16.1200000000000010 22.2400000000000020
 18.1600000000000001 18.1600000000000001 20.2000000000000028
 16.1200000000000010 16.1200000000000010 24.2800000000000011
 16.1200000000000010 18.1600000000000001 26.3200000000000003
 18.1600000000000001 16.1200000000000010 26.3200000000000003
 18.1600000000000001 18.1600000000000001 24.2800000000000011
 18.1600000000000001 20.2000000000000028 10.0000000000000000
 16.1200000000000010 20.2000000000000028 12.0400000000000009
 16.1200000000000010 22.2400000000000020 14.0800000000000018
 18.1600000000000001 20.2000000000000028 14.0800000000000018
 18.1600000000000001 22.2400000000000020 12.0400000000000009
 16.1200000000000010 20.2000000000000028 16.1200000000000010
 16.1200000000000010 22.2400000000000020 18.1600000000000001
 18.1600000000000001 20.2000000000000028 18.1600000000000001
 18.1600000000000001 22.2400000000000020 16.1200000000000010
 16.1200000000000010 20.2000000000000028 20.2000000000000028
 16.1200000000000010 22.2400000000000020 22.2400000000000020
 18.1600000000000001 20.2000000000000028 22.2400000000000020
 18.1600000000000001 22.2400000000000020 20.2000000000000028
 16.1200000000000010 20.2000000000000028 24.2800000000000011
 18.1600000000000001 20.2000000000000028 26.3200000000000003
 18.1600000000000001 22.2400000000000020 24.2800000000000011
 18.1600000000000001 24.2800000000000011 14.0800000000000018
 16.1200000000000010 24.2800000000000011 16.1200000000000010
 16.1200000000000010 26.3200000000000003 18.1600000000000001
 18.1600000000000001 24.2800000000000011 18.1600000000000001
 18.1600000000000001 26.3200000000000003 16.1200000000000010
 16.1200000000000010 24.2800000000000011 20.2000000000000028
 18.1600000000000001 24.2800000000000011 22.2400000000000020
 18.1600000000000001 26.3200000000000003 20.2000000000000028
 20.2000000000000028 10.0000000000000000 18.1600000000000001
 20.2000000000000028 14.0800000000000018 14.0800000000000018
 20.2000000000000028 12.0400000000000009 16.1200000000000010
 20.2000000000000028 14.0800000000000018 18.1600000000000001
 22.2400000000000020 12.0400000000000009 18.1600000000000001
 22.2400000000000020 14.0800000000000018 16.1200000000000010
 20.2000000000000028 12.0400000000000009 20.2000000000000028
 20.2000000000000028 14.0800000000000018 22.2400000000000020
 22.2400000000000020 14.0800000000000018 20.2000000000000028
 20.2000000000000028 18.1600000000000001 10.0000000000000000
 20.2000000000000028 16.1200000000000010 12.0400000000000009
 20.2000000000000028 18.1600000000000001 14.0800000000000018
 22.2400000000000020 16.1200000000000010 14.0800000000000018
 22.2400000000000020 18.1600000000000001 12.0400000000000009
 20.2000000000000028 16.1200000000000010 16.1200000000000010
 20.2000000000000028 18.1600000000000001 18.1600000000000001
 22.2400000000000020 16.1200000000000010 18.1600000000000001
 22.2400000000000020 18.1600000000000001 16.1200000000000010
 20.2000000000000028 16.1200000000000010 20.2000000000000028
 20.2000000000000028 18.1600000000000001 22.2400000000000020
 22.2400000000000020 16.1200000000000010 22.2400000000000020
 22.2400000000000020 18.1600000000000001 20.2000000000000028
 20.2000000000000028 16.1200000000000010 24.2800000000000011
 20.2000000000000028 18.1600000000000001 26.3200000000000003
 22.2400000000000020 18.1600000000000001 24.2800000000000011
 20.2000000000000028 20.2000000000000028 12.0400000000000009
 20.2000000000000028 22.2400000000000020 14.0800000000000018
 22.2400000000000020 20.2000000000000028 14.0800000000000018
 20.2000000000000028 20.2000000000000028 16.1200000000000010
 20.2000000000000028 22.2400000000000020 18.1600000000000001
 22.2400000000000020 20.2000000000000028 18.1600000000000001
 22.2400000000000020 22.2400000000000020 16.1200000000000010
 20.2000000000000028 20.2000000000000028 20.2000000000000028
 20.2000000000000028 22.2400000000000020 22.2400000000000020
 22.2400000000000020 20.2000000000000028 22.2400000000000020
 22.2400000000000020 22.2400000000000020 20.2000000000000028
 20.2000000000000028 20.2000000000000028 24.2800000000000011
 20.2000000000000028 24.2800000000000011 16.1200000000000010
 20.2000000000000028 26.3200000000000003 18.1600000000000001
 22.2400000000000020 24.2800000000000011 18.1600000000000001
 20.2000000000000028 24.2800000000000011 20.2000000000000028
 24.2800000000000011 14.0800000000000018 18.1600000000000001
 24.2800000000000011 18.1600000000000001 14.0800000000000018
 24.2800000000000011 16.1200000000000010 16.1200000000000010
 24.2800000000000011 18.1600000000000001 18.1600000000000001
 26.3200000000000003 16.1200000000000010 18.1600000000000001
 26.3200000000000003 18.1600000000000001 16.1200000000000010
 24.2800000000000011 16.1200000000000010 20.2000000000000028
 24.2800000000000011 18.1600000000000001 22.2400000000000020
 26.3200000000000003 18.1600000000000001 20.2000000000000028
 24.2800000000000011 20.2000000000000028 16.1200000000000010
 24.2800000000000011 22.2400000000000020 18.1600000000000001
 26.3200000000000003 20.2000000000000028 18.1600000000000001
 24.2800000000000011 20.2000000000000028 20.2000000000000028
