Pt 
 1.0000000000000000
    31.9540014064118409    0.0000000000000000    0.0000000000000000
     0.0000000000000000   31.3689309333694126    0.0000000000000000
     0.0000000000000000    0.0000000000000000   28.3155757467538010
 Pt 
  49
Cartesian
 15.9770007032059205 15.8261357586086078 10.0000000000000000
 15.9770007032059205 15.8261357586086078 12.7718585822512676
 15.9770007032059205 15.8261357586086078 15.5437171645025334
 15.9770007032059205 15.8261357586086078 18.3155757467538010
 18.2600118210485611 16.5679310375143842 11.3859292911256347
 18.2600118210485611 16.5679310375143842 14.1577878733769005
 18.2600118210485611 16.5679310375143842 16.9296464556281663
 15.9770007032059205 18.2266357065361220 11.3859292911256347
 15.9770007032059205 18.2266357065361220 14.1577878733769005
 15.9770007032059205 18.2266357065361220 16.9296464556281663
 13.6939895853632816 16.5679310375143878 11.3859292911256347
 13.6939895853632816 16.5679310375143878 14.1577878733769005
 13.6939895853632816 16.5679310375143878 16.9296464556281663
 14.5660222356852778 13.8840905057390724 11.3859292911256347
 14.5660222356852778 13.8840905057390724 14.1577878733769005
 14.5660222356852778 13.8840905057390724 16.9296464556281663
 17.3879791707265632 13.8840905057390724 11.3859292911256347
 17.3879791707265632 13.8840905057390724 14.1577878733769005
 17.3879791707265632 13.8840905057390724 16.9296464556281663
 20.5430229388911982 17.3097263164201642 12.7718585822512676
 20.5430229388911982 17.3097263164201642 15.5437171645025334
 18.2600118210485611 18.9684309854418984 12.7718585822512676
 18.2600118210485611 18.9684309854418984 15.5437171645025334
 15.9770007032059205 20.6271356544636362 12.7718585822512676
 15.9770007032059205 20.6271356544636362 15.5437171645025334
 13.6939895853632816 18.9684309854418984 12.7718585822512676
 13.6939895853632816 18.9684309854418984 15.5437171645025334
 11.4109784675206427 17.3097263164201642 12.7718585822512676
 11.4109784675206427 17.3097263164201642 15.5437171645025334
 12.2830111178426371 14.6258857846448507 12.7718585822512676
 12.2830111178426371 14.6258857846448507 15.5437171645025334
 13.1550437681646351 11.9420452528695371 12.7718585822512676
 13.1550437681646351 11.9420452528695371 15.5437171645025334
 15.9770007032059205 11.9420452528695371 12.7718585822512676
 15.9770007032059205 11.9420452528695371 15.5437171645025334
 18.7989576382472059 11.9420452528695371 12.7718585822512676
 18.7989576382472059 11.9420452528695371 15.5437171645025334
 19.6709902885692003 14.6258857846448507 12.7718585822512676
 19.6709902885692003 14.6258857846448507 15.5437171645025334
 20.5430229388911982 19.7102262643476784 14.1577878733769005
 18.2600118210485611 21.3689309333694126 14.1577878733769005
 13.6939895853632816 21.3689309333694126 14.1577878733769005
 11.4109784675206427 19.7102262643476784 14.1577878733769005
 10.0000000000000000 15.3676810635506289 14.1577878733769005
 10.8720326503219944 12.6838405317753171 14.1577878733769005
 14.5660222356852760 10.0000000000000018 14.1577878733769005
 17.3879791707265632 10.0000000000000000 14.1577878733769005
 21.0819687560898430 12.6838405317753136 14.1577878733769005
 21.9540014064118409 15.3676810635506271 14.1577878733769005
