Au 
 1.0000000000000000
    29.5047809804060890    0.0000000000000000    0.0000000000000000
     0.0000000000000000   29.0395838873734533    0.0000000000000000
     0.0000000000000000    0.0000000000000000   34.4249783362055695
 Au 
  71
Cartesian
 14.7523904902030445 14.0426248120957702 10.0000000000000000
 14.7523904902030445 14.0426248120957702 12.8849956672411139
 14.7523904902030445 14.0426248120957702 15.7699913344822278
 14.7523904902030445 14.0426248120957702 18.6549870017233417
 14.7523904902030445 14.0426248120957702 21.5399826689644556
 14.7523904902030445 14.0426248120957702 24.4249783362055695
 17.1285857353045685 14.8146974493242318 11.4424978336205569
 17.1285857353045685 14.8146974493242318 14.3274935008616708
 17.1285857353045685 14.8146974493242318 17.2124891681027847
 17.1285857353045685 14.8146974493242318 20.0974848353438986
 17.1285857353045685 14.8146974493242318 22.9824805025850125
 14.7523904902030445 16.5411043497346100 11.4424978336205569
 14.7523904902030445 16.5411043497346100 14.3274935008616708
 14.7523904902030445 16.5411043497346100 17.2124891681027847
 14.7523904902030445 16.5411043497346100 20.0974848353438986
 14.7523904902030445 16.5411043497346100 22.9824805025850125
 12.3761952451015222 14.8146974493242336 11.4424978336205569
 12.3761952451015222 14.8146974493242336 14.3274935008616708
 12.3761952451015222 14.8146974493242336 17.2124891681027847
 12.3761952451015222 14.8146974493242336 20.0974848353438986
 12.3761952451015222 14.8146974493242336 22.9824805025850125
 13.2838210648244157 12.0213124060478869 11.4424978336205569
 13.2838210648244157 12.0213124060478869 14.3274935008616708
 13.2838210648244157 12.0213124060478869 17.2124891681027847
 13.2838210648244157 12.0213124060478869 20.0974848353438986
 13.2838210648244157 12.0213124060478869 22.9824805025850125
 16.2209599155816733 12.0213124060478869 11.4424978336205569
 16.2209599155816733 12.0213124060478869 14.3274935008616708
 16.2209599155816733 12.0213124060478869 17.2124891681027847
 16.2209599155816733 12.0213124060478869 20.0974848353438986
 16.2209599155816733 12.0213124060478869 22.9824805025850125
 19.5047809804060890 15.5867700865526952 12.8849956672411139
 19.5047809804060890 15.5867700865526952 15.7699913344822278
 19.5047809804060890 15.5867700865526952 18.6549870017233417
 19.5047809804060890 15.5867700865526952 21.5399826689644556
 17.1285857353045685 17.3131769869630752 12.8849956672411139
 17.1285857353045685 17.3131769869630752 15.7699913344822278
 17.1285857353045685 17.3131769869630752 18.6549870017233417
 17.1285857353045685 17.3131769869630752 21.5399826689644556
 14.7523904902030445 19.0395838873734533 12.8849956672411139
 14.7523904902030445 19.0395838873734533 15.7699913344822278
 14.7523904902030445 19.0395838873734533 18.6549870017233417
 14.7523904902030445 19.0395838873734533 21.5399826689644556
 12.3761952451015222 17.3131769869630752 12.8849956672411139
 12.3761952451015222 17.3131769869630752 15.7699913344822278
 12.3761952451015222 17.3131769869630752 18.6549870017233417
 12.3761952451015222 17.3131769869630752 21.5399826689644556
 10.0000000000000000 15.5867700865526970 12.8849956672411139
 10.0000000000000000 15.5867700865526970 15.7699913344822278
 10.0000000000000000 15.5867700865526970 18.6549870017233417
 10.0000000000000000 15.5867700865526970 21.5399826689644556
 10.9076258197228935 12.7933850432763503 12.8849956672411139
 10.9076258197228935 12.7933850432763503 15.7699913344822278
 10.9076258197228935 12.7933850432763503 18.6549870017233417
 10.9076258197228935 12.7933850432763503 21.5399826689644556
 11.8152516394457869 10.0000000000000036 12.8849956672411139
 11.8152516394457869 10.0000000000000036 15.7699913344822278
 11.8152516394457869 10.0000000000000036 18.6549870017233417
 11.8152516394457869 10.0000000000000036 21.5399826689644556
 14.7523904902030445 10.0000000000000018 12.8849956672411139
 14.7523904902030445 10.0000000000000018 15.7699913344822278
 14.7523904902030445 10.0000000000000018 18.6549870017233417
 14.7523904902030445 10.0000000000000018 21.5399826689644556
 17.6895293409602985 10.0000000000000018 12.8849956672411139
 17.6895293409602985 10.0000000000000018 15.7699913344822278
 17.6895293409602985 10.0000000000000018 18.6549870017233417
 17.6895293409602985 10.0000000000000018 21.5399826689644556
 18.5971551606831937 12.7933850432763485 12.8849956672411139
 18.5971551606831937 12.7933850432763485 15.7699913344822278
 18.5971551606831937 12.7933850432763485 18.6549870017233417
 18.5971551606831937 12.7933850432763485 21.5399826689644556
