Au 
 1.0000000000000000
    62.7715144118274111    0.0000000000000000    0.0000000000000000
     0.0000000000000000   60.6781274931805328    0.0000000000000000
     0.0000000000000000    0.0000000000000000   60.3899393413755945
 Au 
 1965
Cartesian
 31.3857572059137055 28.1918116544309569 10.0000000000000000
 31.3857572059137055 28.1918116544309569 12.8849956672411139
 31.3857572059137055 28.1918116544309569 15.7699913344822278
 31.3857572059137055 28.1918116544309569 18.6549870017233417
 31.3857572059137055 28.1918116544309569 21.5399826689644556
 31.3857572059137055 28.1918116544309569 24.4249783362055695
 31.3857572059137055 28.1918116544309569 27.3099740034466834
 31.3857572059137055 28.1918116544309569 30.1949696706877972
 31.3857572059137055 28.1918116544309569 33.0799653379289111
 31.3857572059137055 28.1918116544309569 35.9649610051700250
 31.3857572059137055 28.1918116544309569 38.8499566724111389
 31.3857572059137055 28.1918116544309569 41.7349523396522528
 31.3857572059137055 28.1918116544309569 44.6199480068933667
 31.3857572059137055 28.1918116544309569 47.5049436741344806
 31.3857572059137055 28.1918116544309569 50.3899393413755945
 33.7619524510152260 28.9638842916594186 11.4424978336205569
 33.7619524510152260 28.9638842916594186 14.3274935008616708
 33.7619524510152260 28.9638842916594186 17.2124891681027847
 33.7619524510152260 28.9638842916594186 20.0974848353438986
 33.7619524510152260 28.9638842916594186 22.9824805025850125
 33.7619524510152260 28.9638842916594186 25.8674761698261264
 33.7619524510152260 28.9638842916594186 28.7524718370672403
 33.7619524510152260 28.9638842916594186 31.6374675043083542
 33.7619524510152260 28.9638842916594186 34.5224631715494681
 33.7619524510152260 28.9638842916594186 37.4074588387905820
 33.7619524510152260 28.9638842916594186 40.2924545060316959
 33.7619524510152260 28.9638842916594186 43.1774501732728098
 33.7619524510152260 28.9638842916594186 46.0624458405139237
 33.7619524510152260 28.9638842916594186 48.9474415077550375
 31.3857572059137055 30.6902911920698003 11.4424978336205569
 31.3857572059137055 30.6902911920698003 14.3274935008616708
 31.3857572059137055 30.6902911920698003 17.2124891681027847
 31.3857572059137055 30.6902911920698003 20.0974848353438986
 31.3857572059137055 30.6902911920698003 22.9824805025850125
 31.3857572059137055 30.6902911920698003 25.8674761698261264
 31.3857572059137055 30.6902911920698003 28.7524718370672403
 31.3857572059137055 30.6902911920698003 31.6374675043083542
 31.3857572059137055 30.6902911920698003 34.5224631715494681
 31.3857572059137055 30.6902911920698003 37.4074588387905820
 31.3857572059137055 30.6902911920698003 40.2924545060316959
 31.3857572059137055 30.6902911920698003 43.1774501732728098
 31.3857572059137055 30.6902911920698003 46.0624458405139237
 31.3857572059137055 30.6902911920698003 48.9474415077550375
 29.0095619608121815 28.9638842916594186 11.4424978336205569
 29.0095619608121815 28.9638842916594186 14.3274935008616708
 29.0095619608121815 28.9638842916594186 17.2124891681027847
 29.0095619608121815 28.9638842916594186 20.0974848353438986
 29.0095619608121815 28.9638842916594186 22.9824805025850125
 29.0095619608121815 28.9638842916594186 25.8674761698261264
 29.0095619608121815 28.9638842916594186 28.7524718370672403
 29.0095619608121815 28.9638842916594186 31.6374675043083542
 29.0095619608121815 28.9638842916594186 34.5224631715494681
 29.0095619608121815 28.9638842916594186 37.4074588387905820
 29.0095619608121815 28.9638842916594186 40.2924545060316959
 29.0095619608121815 28.9638842916594186 43.1774501732728098
 29.0095619608121815 28.9638842916594186 46.0624458405139237
 29.0095619608121815 28.9638842916594186 48.9474415077550375
 29.9171877805350768 26.1704992483830736 11.4424978336205569
 29.9171877805350768 26.1704992483830736 14.3274935008616708
 29.9171877805350768 26.1704992483830736 17.2124891681027847
 29.9171877805350768 26.1704992483830736 20.0974848353438986
 29.9171877805350768 26.1704992483830736 22.9824805025850125
 29.9171877805350768 26.1704992483830736 25.8674761698261264
 29.9171877805350768 26.1704992483830736 28.7524718370672403
 29.9171877805350768 26.1704992483830736 31.6374675043083542
 29.9171877805350768 26.1704992483830736 34.5224631715494681
 29.9171877805350768 26.1704992483830736 37.4074588387905820
 29.9171877805350768 26.1704992483830736 40.2924545060316959
 29.9171877805350768 26.1704992483830736 43.1774501732728098
 29.9171877805350768 26.1704992483830736 46.0624458405139237
 29.9171877805350768 26.1704992483830736 48.9474415077550375
 32.8543266312923308 26.1704992483830736 11.4424978336205569
 32.8543266312923308 26.1704992483830736 14.3274935008616708
 32.8543266312923308 26.1704992483830736 17.2124891681027847
 32.8543266312923308 26.1704992483830736 20.0974848353438986
 32.8543266312923308 26.1704992483830736 22.9824805025850125
 32.8543266312923308 26.1704992483830736 25.8674761698261264
 32.8543266312923308 26.1704992483830736 28.7524718370672403
 32.8543266312923308 26.1704992483830736 31.6374675043083542
 32.8543266312923308 26.1704992483830736 34.5224631715494681
 32.8543266312923308 26.1704992483830736 37.4074588387905820
 32.8543266312923308 26.1704992483830736 40.2924545060316959
 32.8543266312923308 26.1704992483830736 43.1774501732728098
 32.8543266312923308 26.1704992483830736 46.0624458405139237
 32.8543266312923308 26.1704992483830736 48.9474415077550375
 36.1381476961167536 29.7359569288878802 12.8849956672411139
 36.1381476961167536 29.7359569288878802 15.7699913344822278
 36.1381476961167536 29.7359569288878802 18.6549870017233417
 36.1381476961167536 29.7359569288878802 21.5399826689644556
 36.1381476961167536 29.7359569288878802 24.4249783362055695
 36.1381476961167536 29.7359569288878802 27.3099740034466834
 36.1381476961167536 29.7359569288878802 30.1949696706877972
 36.1381476961167536 29.7359569288878802 33.0799653379289111
 36.1381476961167536 29.7359569288878802 35.9649610051700250
 36.1381476961167536 29.7359569288878802 38.8499566724111389
 36.1381476961167536 29.7359569288878802 41.7349523396522528
 36.1381476961167536 29.7359569288878802 44.6199480068933667
 36.1381476961167536 29.7359569288878802 47.5049436741344806
 33.7619524510152260 31.4623638292982619 12.8849956672411139
 33.7619524510152260 31.4623638292982619 15.7699913344822278
 33.7619524510152260 31.4623638292982619 18.6549870017233417
 33.7619524510152260 31.4623638292982619 21.5399826689644556
 33.7619524510152260 31.4623638292982619 24.4249783362055695
 33.7619524510152260 31.4623638292982619 27.3099740034466834
 33.7619524510152260 31.4623638292982619 30.1949696706877972
 33.7619524510152260 31.4623638292982619 33.0799653379289111
 33.7619524510152260 31.4623638292982619 35.9649610051700250
 33.7619524510152260 31.4623638292982619 38.8499566724111389
 33.7619524510152260 31.4623638292982619 41.7349523396522528
 33.7619524510152260 31.4623638292982619 44.6199480068933667
 33.7619524510152260 31.4623638292982619 47.5049436741344806
 31.3857572059137055 33.1887707297086365 12.8849956672411139
 31.3857572059137055 33.1887707297086365 15.7699913344822278
 31.3857572059137055 33.1887707297086365 18.6549870017233417
 31.3857572059137055 33.1887707297086365 21.5399826689644556
 31.3857572059137055 33.1887707297086365 24.4249783362055695
 31.3857572059137055 33.1887707297086365 27.3099740034466834
 31.3857572059137055 33.1887707297086365 30.1949696706877972
 31.3857572059137055 33.1887707297086365 33.0799653379289111
 31.3857572059137055 33.1887707297086365 35.9649610051700250
 31.3857572059137055 33.1887707297086365 38.8499566724111389
 31.3857572059137055 33.1887707297086365 41.7349523396522528
 31.3857572059137055 33.1887707297086365 44.6199480068933667
 31.3857572059137055 33.1887707297086365 47.5049436741344806
 29.0095619608121815 31.4623638292982619 12.8849956672411139
 29.0095619608121815 31.4623638292982619 15.7699913344822278
 29.0095619608121815 31.4623638292982619 18.6549870017233417
 29.0095619608121815 31.4623638292982619 21.5399826689644556
 29.0095619608121815 31.4623638292982619 24.4249783362055695
 29.0095619608121815 31.4623638292982619 27.3099740034466834
 29.0095619608121815 31.4623638292982619 30.1949696706877972
 29.0095619608121815 31.4623638292982619 33.0799653379289111
 29.0095619608121815 31.4623638292982619 35.9649610051700250
 29.0095619608121815 31.4623638292982619 38.8499566724111389
 29.0095619608121815 31.4623638292982619 41.7349523396522528
 29.0095619608121815 31.4623638292982619 44.6199480068933667
 29.0095619608121815 31.4623638292982619 47.5049436741344806
 26.6333667157106611 29.7359569288878838 12.8849956672411139
 26.6333667157106611 29.7359569288878838 15.7699913344822278
 26.6333667157106611 29.7359569288878838 18.6549870017233417
 26.6333667157106611 29.7359569288878838 21.5399826689644556
 26.6333667157106611 29.7359569288878838 24.4249783362055695
 26.6333667157106611 29.7359569288878838 27.3099740034466834
 26.6333667157106611 29.7359569288878838 30.1949696706877972
 26.6333667157106611 29.7359569288878838 33.0799653379289111
 26.6333667157106611 29.7359569288878838 35.9649610051700250
 26.6333667157106611 29.7359569288878838 38.8499566724111389
 26.6333667157106611 29.7359569288878838 41.7349523396522528
 26.6333667157106611 29.7359569288878838 44.6199480068933667
 26.6333667157106611 29.7359569288878838 47.5049436741344806
 27.5409925354335527 26.9425718856115353 12.8849956672411139
 27.5409925354335527 26.9425718856115353 15.7699913344822278
 27.5409925354335527 26.9425718856115353 18.6549870017233417
 27.5409925354335527 26.9425718856115353 21.5399826689644556
 27.5409925354335527 26.9425718856115353 24.4249783362055695
 27.5409925354335527 26.9425718856115353 27.3099740034466834
 27.5409925354335527 26.9425718856115353 30.1949696706877972
 27.5409925354335527 26.9425718856115353 33.0799653379289111
 27.5409925354335527 26.9425718856115353 35.9649610051700250
 27.5409925354335527 26.9425718856115353 38.8499566724111389
 27.5409925354335527 26.9425718856115353 41.7349523396522528
 27.5409925354335527 26.9425718856115353 44.6199480068933667
 27.5409925354335527 26.9425718856115353 47.5049436741344806
 28.4486183551564480 24.1491868423351903 12.8849956672411139
 28.4486183551564480 24.1491868423351903 15.7699913344822278
 28.4486183551564480 24.1491868423351903 18.6549870017233417
 28.4486183551564480 24.1491868423351903 21.5399826689644556
 28.4486183551564480 24.1491868423351903 24.4249783362055695
 28.4486183551564480 24.1491868423351903 27.3099740034466834
 28.4486183551564480 24.1491868423351903 30.1949696706877972
 28.4486183551564480 24.1491868423351903 33.0799653379289111
 28.4486183551564480 24.1491868423351903 35.9649610051700250
 28.4486183551564480 24.1491868423351903 38.8499566724111389
 28.4486183551564480 24.1491868423351903 41.7349523396522528
 28.4486183551564480 24.1491868423351903 44.6199480068933667
 28.4486183551564480 24.1491868423351903 47.5049436741344806
 31.3857572059137055 24.1491868423351903 12.8849956672411139
 31.3857572059137055 24.1491868423351903 15.7699913344822278
 31.3857572059137055 24.1491868423351903 18.6549870017233417
 31.3857572059137055 24.1491868423351903 21.5399826689644556
 31.3857572059137055 24.1491868423351903 24.4249783362055695
 31.3857572059137055 24.1491868423351903 27.3099740034466834
 31.3857572059137055 24.1491868423351903 30.1949696706877972
 31.3857572059137055 24.1491868423351903 33.0799653379289111
 31.3857572059137055 24.1491868423351903 35.9649610051700250
 31.3857572059137055 24.1491868423351903 38.8499566724111389
 31.3857572059137055 24.1491868423351903 41.7349523396522528
 31.3857572059137055 24.1491868423351903 44.6199480068933667
 31.3857572059137055 24.1491868423351903 47.5049436741344806
 34.3228960566709631 24.1491868423351903 12.8849956672411139
 34.3228960566709631 24.1491868423351903 15.7699913344822278
 34.3228960566709631 24.1491868423351903 18.6549870017233417
 34.3228960566709631 24.1491868423351903 21.5399826689644556
 34.3228960566709631 24.1491868423351903 24.4249783362055695
 34.3228960566709631 24.1491868423351903 27.3099740034466834
 34.3228960566709631 24.1491868423351903 30.1949696706877972
 34.3228960566709631 24.1491868423351903 33.0799653379289111
 34.3228960566709631 24.1491868423351903 35.9649610051700250
 34.3228960566709631 24.1491868423351903 38.8499566724111389
 34.3228960566709631 24.1491868423351903 41.7349523396522528
 34.3228960566709631 24.1491868423351903 44.6199480068933667
 34.3228960566709631 24.1491868423351903 47.5049436741344806
 35.2305218763938583 26.9425718856115353 12.8849956672411139
 35.2305218763938583 26.9425718856115353 15.7699913344822278
 35.2305218763938583 26.9425718856115353 18.6549870017233417
 35.2305218763938583 26.9425718856115353 21.5399826689644556
 35.2305218763938583 26.9425718856115353 24.4249783362055695
 35.2305218763938583 26.9425718856115353 27.3099740034466834
 35.2305218763938583 26.9425718856115353 30.1949696706877972
 35.2305218763938583 26.9425718856115353 33.0799653379289111
 35.2305218763938583 26.9425718856115353 35.9649610051700250
 35.2305218763938583 26.9425718856115353 38.8499566724111389
 35.2305218763938583 26.9425718856115353 41.7349523396522528
 35.2305218763938583 26.9425718856115353 44.6199480068933667
 35.2305218763938583 26.9425718856115353 47.5049436741344806
 38.5143429412182741 30.5080295661163454 14.3274935008616708
 38.5143429412182741 30.5080295661163454 17.2124891681027847
 38.5143429412182741 30.5080295661163454 20.0974848353438986
 38.5143429412182741 30.5080295661163454 22.9824805025850125
 38.5143429412182741 30.5080295661163454 25.8674761698261264
 38.5143429412182741 30.5080295661163454 28.7524718370672403
 38.5143429412182741 30.5080295661163454 31.6374675043083542
 38.5143429412182741 30.5080295661163454 34.5224631715494681
 38.5143429412182741 30.5080295661163454 37.4074588387905820
 38.5143429412182741 30.5080295661163454 40.2924545060316959
 38.5143429412182741 30.5080295661163454 43.1774501732728098
 38.5143429412182741 30.5080295661163454 46.0624458405139237
 36.1381476961167536 32.2344364665267236 14.3274935008616708
 36.1381476961167536 32.2344364665267236 17.2124891681027847
 36.1381476961167536 32.2344364665267236 20.0974848353438986
 36.1381476961167536 32.2344364665267236 22.9824805025850125
 36.1381476961167536 32.2344364665267236 25.8674761698261264
 36.1381476961167536 32.2344364665267236 28.7524718370672403
 36.1381476961167536 32.2344364665267236 31.6374675043083542
 36.1381476961167536 32.2344364665267236 34.5224631715494681
 36.1381476961167536 32.2344364665267236 37.4074588387905820
 36.1381476961167536 32.2344364665267236 40.2924545060316959
 36.1381476961167536 32.2344364665267236 43.1774501732728098
 36.1381476961167536 32.2344364665267236 46.0624458405139237
 33.7619524510152260 33.9608433669371053 14.3274935008616708
 33.7619524510152260 33.9608433669371053 17.2124891681027847
 33.7619524510152260 33.9608433669371053 20.0974848353438986
 33.7619524510152260 33.9608433669371053 22.9824805025850125
 33.7619524510152260 33.9608433669371053 25.8674761698261264
 33.7619524510152260 33.9608433669371053 28.7524718370672403
 33.7619524510152260 33.9608433669371053 31.6374675043083542
 33.7619524510152260 33.9608433669371053 34.5224631715494681
 33.7619524510152260 33.9608433669371053 37.4074588387905820
 33.7619524510152260 33.9608433669371053 40.2924545060316959
 33.7619524510152260 33.9608433669371053 43.1774501732728098
 33.7619524510152260 33.9608433669371053 46.0624458405139237
 31.3857572059137055 35.6872502673474798 14.3274935008616708
 31.3857572059137055 35.6872502673474798 17.2124891681027847
 31.3857572059137055 35.6872502673474798 20.0974848353438986
 31.3857572059137055 35.6872502673474798 22.9824805025850125
 31.3857572059137055 35.6872502673474798 25.8674761698261264
 31.3857572059137055 35.6872502673474798 28.7524718370672403
 31.3857572059137055 35.6872502673474798 31.6374675043083542
 31.3857572059137055 35.6872502673474798 34.5224631715494681
 31.3857572059137055 35.6872502673474798 37.4074588387905820
 31.3857572059137055 35.6872502673474798 40.2924545060316959
 31.3857572059137055 35.6872502673474798 43.1774501732728098
 31.3857572059137055 35.6872502673474798 46.0624458405139237
 29.0095619608121851 33.9608433669371053 14.3274935008616708
 29.0095619608121851 33.9608433669371053 17.2124891681027847
 29.0095619608121851 33.9608433669371053 20.0974848353438986
 29.0095619608121851 33.9608433669371053 22.9824805025850125
 29.0095619608121851 33.9608433669371053 25.8674761698261264
 29.0095619608121851 33.9608433669371053 28.7524718370672403
 29.0095619608121851 33.9608433669371053 31.6374675043083542
 29.0095619608121851 33.9608433669371053 34.5224631715494681
 29.0095619608121851 33.9608433669371053 37.4074588387905820
 29.0095619608121851 33.9608433669371053 40.2924545060316959
 29.0095619608121851 33.9608433669371053 43.1774501732728098
 29.0095619608121851 33.9608433669371053 46.0624458405139237
 26.6333667157106611 32.2344364665267236 14.3274935008616708
 26.6333667157106611 32.2344364665267236 17.2124891681027847
 26.6333667157106611 32.2344364665267236 20.0974848353438986
 26.6333667157106611 32.2344364665267236 22.9824805025850125
 26.6333667157106611 32.2344364665267236 25.8674761698261264
 26.6333667157106611 32.2344364665267236 28.7524718370672403
 26.6333667157106611 32.2344364665267236 31.6374675043083542
 26.6333667157106611 32.2344364665267236 34.5224631715494681
 26.6333667157106611 32.2344364665267236 37.4074588387905820
 26.6333667157106611 32.2344364665267236 40.2924545060316959
 26.6333667157106611 32.2344364665267236 43.1774501732728098
 26.6333667157106611 32.2344364665267236 46.0624458405139237
 24.2571714706091370 30.5080295661163454 14.3274935008616708
 24.2571714706091370 30.5080295661163454 17.2124891681027847
 24.2571714706091370 30.5080295661163454 20.0974848353438986
 24.2571714706091370 30.5080295661163454 22.9824805025850125
 24.2571714706091370 30.5080295661163454 25.8674761698261264
 24.2571714706091370 30.5080295661163454 28.7524718370672403
 24.2571714706091370 30.5080295661163454 31.6374675043083542
 24.2571714706091370 30.5080295661163454 34.5224631715494681
 24.2571714706091370 30.5080295661163454 37.4074588387905820
 24.2571714706091370 30.5080295661163454 40.2924545060316959
 24.2571714706091370 30.5080295661163454 43.1774501732728098
 24.2571714706091370 30.5080295661163454 46.0624458405139237
 25.1647972903320323 27.7146445228400005 14.3274935008616708
 25.1647972903320323 27.7146445228400005 17.2124891681027847
 25.1647972903320323 27.7146445228400005 20.0974848353438986
 25.1647972903320323 27.7146445228400005 22.9824805025850125
 25.1647972903320323 27.7146445228400005 25.8674761698261264
 25.1647972903320323 27.7146445228400005 28.7524718370672403
 25.1647972903320323 27.7146445228400005 31.6374675043083542
 25.1647972903320323 27.7146445228400005 34.5224631715494681
 25.1647972903320323 27.7146445228400005 37.4074588387905820
 25.1647972903320323 27.7146445228400005 40.2924545060316959
 25.1647972903320323 27.7146445228400005 43.1774501732728098
 25.1647972903320323 27.7146445228400005 46.0624458405139237
 26.0724231100549275 24.9212594795636520 14.3274935008616708
 26.0724231100549275 24.9212594795636520 17.2124891681027847
 26.0724231100549275 24.9212594795636520 20.0974848353438986
 26.0724231100549275 24.9212594795636520 22.9824805025850125
 26.0724231100549275 24.9212594795636520 25.8674761698261264
 26.0724231100549275 24.9212594795636520 28.7524718370672403
 26.0724231100549275 24.9212594795636520 31.6374675043083542
 26.0724231100549275 24.9212594795636520 34.5224631715494681
 26.0724231100549275 24.9212594795636520 37.4074588387905820
 26.0724231100549275 24.9212594795636520 40.2924545060316959
 26.0724231100549275 24.9212594795636520 43.1774501732728098
 26.0724231100549275 24.9212594795636520 46.0624458405139237
 26.9800489297778228 22.1278744362873070 14.3274935008616708
 26.9800489297778228 22.1278744362873070 17.2124891681027847
 26.9800489297778228 22.1278744362873070 20.0974848353438986
 26.9800489297778228 22.1278744362873070 22.9824805025850125
 26.9800489297778228 22.1278744362873070 25.8674761698261264
 26.9800489297778228 22.1278744362873070 28.7524718370672403
 26.9800489297778228 22.1278744362873070 31.6374675043083542
 26.9800489297778228 22.1278744362873070 34.5224631715494681
 26.9800489297778228 22.1278744362873070 37.4074588387905820
 26.9800489297778228 22.1278744362873070 40.2924545060316959
 26.9800489297778228 22.1278744362873070 43.1774501732728098
 26.9800489297778228 22.1278744362873070 46.0624458405139237
 29.9171877805350768 22.1278744362873070 14.3274935008616708
 29.9171877805350768 22.1278744362873070 17.2124891681027847
 29.9171877805350768 22.1278744362873070 20.0974848353438986
 29.9171877805350768 22.1278744362873070 22.9824805025850125
 29.9171877805350768 22.1278744362873070 25.8674761698261264
 29.9171877805350768 22.1278744362873070 28.7524718370672403
 29.9171877805350768 22.1278744362873070 31.6374675043083542
 29.9171877805350768 22.1278744362873070 34.5224631715494681
 29.9171877805350768 22.1278744362873070 37.4074588387905820
 29.9171877805350768 22.1278744362873070 40.2924545060316959
 29.9171877805350768 22.1278744362873070 43.1774501732728098
 29.9171877805350768 22.1278744362873070 46.0624458405139237
 32.8543266312923308 22.1278744362873070 14.3274935008616708
 32.8543266312923308 22.1278744362873070 17.2124891681027847
 32.8543266312923308 22.1278744362873070 20.0974848353438986
 32.8543266312923308 22.1278744362873070 22.9824805025850125
 32.8543266312923308 22.1278744362873070 25.8674761698261264
 32.8543266312923308 22.1278744362873070 28.7524718370672403
 32.8543266312923308 22.1278744362873070 31.6374675043083542
 32.8543266312923308 22.1278744362873070 34.5224631715494681
 32.8543266312923308 22.1278744362873070 37.4074588387905820
 32.8543266312923308 22.1278744362873070 40.2924545060316959
 32.8543266312923308 22.1278744362873070 43.1774501732728098
 32.8543266312923308 22.1278744362873070 46.0624458405139237
 35.7914654820495883 22.1278744362873034 14.3274935008616708
 35.7914654820495883 22.1278744362873034 17.2124891681027847
 35.7914654820495883 22.1278744362873034 20.0974848353438986
 35.7914654820495883 22.1278744362873034 22.9824805025850125
 35.7914654820495883 22.1278744362873034 25.8674761698261264
 35.7914654820495883 22.1278744362873034 28.7524718370672403
 35.7914654820495883 22.1278744362873034 31.6374675043083542
 35.7914654820495883 22.1278744362873034 34.5224631715494681
 35.7914654820495883 22.1278744362873034 37.4074588387905820
 35.7914654820495883 22.1278744362873034 40.2924545060316959
 35.7914654820495883 22.1278744362873034 43.1774501732728098
 35.7914654820495883 22.1278744362873034 46.0624458405139237
 36.6990913017724836 24.9212594795636520 14.3274935008616708
 36.6990913017724836 24.9212594795636520 17.2124891681027847
 36.6990913017724836 24.9212594795636520 20.0974848353438986
 36.6990913017724836 24.9212594795636520 22.9824805025850125
 36.6990913017724836 24.9212594795636520 25.8674761698261264
 36.6990913017724836 24.9212594795636520 28.7524718370672403
 36.6990913017724836 24.9212594795636520 31.6374675043083542
 36.6990913017724836 24.9212594795636520 34.5224631715494681
 36.6990913017724836 24.9212594795636520 37.4074588387905820
 36.6990913017724836 24.9212594795636520 40.2924545060316959
 36.6990913017724836 24.9212594795636520 43.1774501732728098
 36.6990913017724836 24.9212594795636520 46.0624458405139237
 37.6067171214953788 27.7146445228399969 14.3274935008616708
 37.6067171214953788 27.7146445228399969 17.2124891681027847
 37.6067171214953788 27.7146445228399969 20.0974848353438986
 37.6067171214953788 27.7146445228399969 22.9824805025850125
 37.6067171214953788 27.7146445228399969 25.8674761698261264
 37.6067171214953788 27.7146445228399969 28.7524718370672403
 37.6067171214953788 27.7146445228399969 31.6374675043083542
 37.6067171214953788 27.7146445228399969 34.5224631715494681
 37.6067171214953788 27.7146445228399969 37.4074588387905820
 37.6067171214953788 27.7146445228399969 40.2924545060316959
 37.6067171214953788 27.7146445228399969 43.1774501732728098
 37.6067171214953788 27.7146445228399969 46.0624458405139237
 40.8905381863197945 31.2801022033448071 15.7699913344822278
 40.8905381863197945 31.2801022033448071 18.6549870017233417
 40.8905381863197945 31.2801022033448071 21.5399826689644556
 40.8905381863197945 31.2801022033448071 24.4249783362055695
 40.8905381863197945 31.2801022033448071 27.3099740034466834
 40.8905381863197945 31.2801022033448071 30.1949696706877972
 40.8905381863197945 31.2801022033448071 33.0799653379289111
 40.8905381863197945 31.2801022033448071 35.9649610051700250
 40.8905381863197945 31.2801022033448071 38.8499566724111389
 40.8905381863197945 31.2801022033448071 41.7349523396522528
 40.8905381863197945 31.2801022033448071 44.6199480068933667
 38.5143429412182741 33.0065091037551852 15.7699913344822278
 38.5143429412182741 33.0065091037551852 18.6549870017233417
 38.5143429412182741 33.0065091037551852 21.5399826689644556
 38.5143429412182741 33.0065091037551852 24.4249783362055695
 38.5143429412182741 33.0065091037551852 27.3099740034466834
 38.5143429412182741 33.0065091037551852 30.1949696706877972
 38.5143429412182741 33.0065091037551852 33.0799653379289111
 38.5143429412182741 33.0065091037551852 35.9649610051700250
 38.5143429412182741 33.0065091037551852 38.8499566724111389
 38.5143429412182741 33.0065091037551852 41.7349523396522528
 38.5143429412182741 33.0065091037551852 44.6199480068933667
 36.1381476961167536 34.7329160041655669 15.7699913344822278
 36.1381476961167536 34.7329160041655669 18.6549870017233417
 36.1381476961167536 34.7329160041655669 21.5399826689644556
 36.1381476961167536 34.7329160041655669 24.4249783362055695
 36.1381476961167536 34.7329160041655669 27.3099740034466834
 36.1381476961167536 34.7329160041655669 30.1949696706877972
 36.1381476961167536 34.7329160041655669 33.0799653379289111
 36.1381476961167536 34.7329160041655669 35.9649610051700250
 36.1381476961167536 34.7329160041655669 38.8499566724111389
 36.1381476961167536 34.7329160041655669 41.7349523396522528
 36.1381476961167536 34.7329160041655669 44.6199480068933667
 33.7619524510152260 36.4593229045759415 15.7699913344822278
 33.7619524510152260 36.4593229045759415 18.6549870017233417
 33.7619524510152260 36.4593229045759415 21.5399826689644556
 33.7619524510152260 36.4593229045759415 24.4249783362055695
 33.7619524510152260 36.4593229045759415 27.3099740034466834
 33.7619524510152260 36.4593229045759415 30.1949696706877972
 33.7619524510152260 36.4593229045759415 33.0799653379289111
 33.7619524510152260 36.4593229045759415 35.9649610051700250
 33.7619524510152260 36.4593229045759415 38.8499566724111389
 33.7619524510152260 36.4593229045759415 41.7349523396522528
 33.7619524510152260 36.4593229045759415 44.6199480068933667
 31.3857572059137055 38.1857298049863232 15.7699913344822278
 31.3857572059137055 38.1857298049863232 18.6549870017233417
 31.3857572059137055 38.1857298049863232 21.5399826689644556
 31.3857572059137055 38.1857298049863232 24.4249783362055695
 31.3857572059137055 38.1857298049863232 27.3099740034466834
 31.3857572059137055 38.1857298049863232 30.1949696706877972
 31.3857572059137055 38.1857298049863232 33.0799653379289111
 31.3857572059137055 38.1857298049863232 35.9649610051700250
 31.3857572059137055 38.1857298049863232 38.8499566724111389
 31.3857572059137055 38.1857298049863232 41.7349523396522528
 31.3857572059137055 38.1857298049863232 44.6199480068933667
 29.0095619608121851 36.4593229045759415 15.7699913344822278
 29.0095619608121851 36.4593229045759415 18.6549870017233417
 29.0095619608121851 36.4593229045759415 21.5399826689644556
 29.0095619608121851 36.4593229045759415 24.4249783362055695
 29.0095619608121851 36.4593229045759415 27.3099740034466834
 29.0095619608121851 36.4593229045759415 30.1949696706877972
 29.0095619608121851 36.4593229045759415 33.0799653379289111
 29.0095619608121851 36.4593229045759415 35.9649610051700250
 29.0095619608121851 36.4593229045759415 38.8499566724111389
 29.0095619608121851 36.4593229045759415 41.7349523396522528
 29.0095619608121851 36.4593229045759415 44.6199480068933667
 26.6333667157106611 34.7329160041655669 15.7699913344822278
 26.6333667157106611 34.7329160041655669 18.6549870017233417
 26.6333667157106611 34.7329160041655669 21.5399826689644556
 26.6333667157106611 34.7329160041655669 24.4249783362055695
 26.6333667157106611 34.7329160041655669 27.3099740034466834
 26.6333667157106611 34.7329160041655669 30.1949696706877972
 26.6333667157106611 34.7329160041655669 33.0799653379289111
 26.6333667157106611 34.7329160041655669 35.9649610051700250
 26.6333667157106611 34.7329160041655669 38.8499566724111389
 26.6333667157106611 34.7329160041655669 41.7349523396522528
 26.6333667157106611 34.7329160041655669 44.6199480068933667
 24.2571714706091370 33.0065091037551923 15.7699913344822278
 24.2571714706091370 33.0065091037551923 18.6549870017233417
 24.2571714706091370 33.0065091037551923 21.5399826689644556
 24.2571714706091370 33.0065091037551923 24.4249783362055695
 24.2571714706091370 33.0065091037551923 27.3099740034466834
 24.2571714706091370 33.0065091037551923 30.1949696706877972
 24.2571714706091370 33.0065091037551923 33.0799653379289111
 24.2571714706091370 33.0065091037551923 35.9649610051700250
 24.2571714706091370 33.0065091037551923 38.8499566724111389
 24.2571714706091370 33.0065091037551923 41.7349523396522528
 24.2571714706091370 33.0065091037551923 44.6199480068933667
 21.8809762255076166 31.2801022033448106 15.7699913344822278
 21.8809762255076166 31.2801022033448106 18.6549870017233417
 21.8809762255076166 31.2801022033448106 21.5399826689644556
 21.8809762255076166 31.2801022033448106 24.4249783362055695