Au 
 1.0000000000000000
    67.5239049020304520    0.0000000000000000    0.0000000000000000
     0.0000000000000000   65.1979194368672523    0.0000000000000000
     0.0000000000000000    0.0000000000000000   54.6199480068933667
 Au 
 1663
Cartesian
 33.7619524510152260 30.2131240604788367 10.0000000000000000
 33.7619524510152260 30.2131240604788367 12.8849956672411139
 33.7619524510152260 30.2131240604788367 15.7699913344822278
 33.7619524510152260 30.2131240604788367 18.6549870017233417
 33.7619524510152260 30.2131240604788367 21.5399826689644556
 33.7619524510152260 30.2131240604788367 24.4249783362055695
 33.7619524510152260 30.2131240604788367 27.3099740034466834
 33.7619524510152260 30.2131240604788367 30.1949696706877972
 33.7619524510152260 30.2131240604788367 33.0799653379289111
 33.7619524510152260 30.2131240604788367 35.9649610051700250
 33.7619524510152260 30.2131240604788367 38.8499566724111389
 33.7619524510152260 30.2131240604788367 41.7349523396522528
 33.7619524510152260 30.2131240604788367 44.6199480068933667
 36.1381476961167465 30.9851966977072983 11.4424978336205569
 36.1381476961167465 30.9851966977072983 14.3274935008616708
 36.1381476961167465 30.9851966977072983 17.2124891681027847
 36.1381476961167465 30.9851966977072983 20.0974848353438986
 36.1381476961167465 30.9851966977072983 22.9824805025850125
 36.1381476961167465 30.9851966977072983 25.8674761698261264
 36.1381476961167465 30.9851966977072983 28.7524718370672403
 36.1381476961167465 30.9851966977072983 31.6374675043083542
 36.1381476961167465 30.9851966977072983 34.5224631715494681
 36.1381476961167465 30.9851966977072983 37.4074588387905820
 36.1381476961167465 30.9851966977072983 40.2924545060316959
 36.1381476961167465 30.9851966977072983 43.1774501732728098
 33.7619524510152260 32.7116035981176765 11.4424978336205569
 33.7619524510152260 32.7116035981176765 14.3274935008616708
 33.7619524510152260 32.7116035981176765 17.2124891681027847
 33.7619524510152260 32.7116035981176765 20.0974848353438986
 33.7619524510152260 32.7116035981176765 22.9824805025850125
 33.7619524510152260 32.7116035981176765 25.8674761698261264
 33.7619524510152260 32.7116035981176765 28.7524718370672403
 33.7619524510152260 32.7116035981176765 31.6374675043083542
 33.7619524510152260 32.7116035981176765 34.5224631715494681
 33.7619524510152260 32.7116035981176765 37.4074588387905820
 33.7619524510152260 32.7116035981176765 40.2924545060316959
 33.7619524510152260 32.7116035981176765 43.1774501732728098
 31.3857572059137020 30.9851966977072983 11.4424978336205569
 31.3857572059137020 30.9851966977072983 14.3274935008616708
 31.3857572059137020 30.9851966977072983 17.2124891681027847
 31.3857572059137020 30.9851966977072983 20.0974848353438986
 31.3857572059137020 30.9851966977072983 22.9824805025850125
 31.3857572059137020 30.9851966977072983 25.8674761698261264
 31.3857572059137020 30.9851966977072983 28.7524718370672403
 31.3857572059137020 30.9851966977072983 31.6374675043083542
 31.3857572059137020 30.9851966977072983 34.5224631715494681
 31.3857572059137020 30.9851966977072983 37.4074588387905820
 31.3857572059137020 30.9851966977072983 40.2924545060316959
 31.3857572059137020 30.9851966977072983 43.1774501732728098
 32.2933830256366008 28.1918116544309534 11.4424978336205569
 32.2933830256366008 28.1918116544309534 14.3274935008616708
 32.2933830256366008 28.1918116544309534 17.2124891681027847
 32.2933830256366008 28.1918116544309534 20.0974848353438986
 32.2933830256366008 28.1918116544309534 22.9824805025850125
 32.2933830256366008 28.1918116544309534 25.8674761698261264
 32.2933830256366008 28.1918116544309534 28.7524718370672403
 32.2933830256366008 28.1918116544309534 31.6374675043083542
 32.2933830256366008 28.1918116544309534 34.5224631715494681
 32.2933830256366008 28.1918116544309534 37.4074588387905820
 32.2933830256366008 28.1918116544309534 40.2924545060316959
 32.2933830256366008 28.1918116544309534 43.1774501732728098
 35.2305218763938512 28.1918116544309534 11.4424978336205569
 35.2305218763938512 28.1918116544309534 14.3274935008616708
 35.2305218763938512 28.1918116544309534 17.2124891681027847
 35.2305218763938512 28.1918116544309534 20.0974848353438986
 35.2305218763938512 28.1918116544309534 22.9824805025850125
 35.2305218763938512 28.1918116544309534 25.8674761698261264
 35.2305218763938512 28.1918116544309534 28.7524718370672403
 35.2305218763938512 28.1918116544309534 31.6374675043083542
 35.2305218763938512 28.1918116544309534 34.5224631715494681
 35.2305218763938512 28.1918116544309534 37.4074588387905820
 35.2305218763938512 28.1918116544309534 40.2924545060316959
 35.2305218763938512 28.1918116544309534 43.1774501732728098
 38.5143429412182741 31.7572693349357635 12.8849956672411139
 38.5143429412182741 31.7572693349357635 15.7699913344822278
 38.5143429412182741 31.7572693349357635 18.6549870017233417
 38.5143429412182741 31.7572693349357635 21.5399826689644556
 38.5143429412182741 31.7572693349357635 24.4249783362055695
 38.5143429412182741 31.7572693349357635 27.3099740034466834
 38.5143429412182741 31.7572693349357635 30.1949696706877972
 38.5143429412182741 31.7572693349357635 33.0799653379289111
 38.5143429412182741 31.7572693349357635 35.9649610051700250
 38.5143429412182741 31.7572693349357635 38.8499566724111389
 38.5143429412182741 31.7572693349357635 41.7349523396522528
 36.1381476961167465 33.4836762353461381 12.8849956672411139
 36.1381476961167465 33.4836762353461381 15.7699913344822278
 36.1381476961167465 33.4836762353461381 18.6549870017233417
 36.1381476961167465 33.4836762353461381 21.5399826689644556
 36.1381476961167465 33.4836762353461381 24.4249783362055695
 36.1381476961167465 33.4836762353461381 27.3099740034466834
 36.1381476961167465 33.4836762353461381 30.1949696706877972
 36.1381476961167465 33.4836762353461381 33.0799653379289111
 36.1381476961167465 33.4836762353461381 35.9649610051700250
 36.1381476961167465 33.4836762353461381 38.8499566724111389
 36.1381476961167465 33.4836762353461381 41.7349523396522528
 33.7619524510152260 35.2100831357565198 12.8849956672411139
 33.7619524510152260 35.2100831357565198 15.7699913344822278
 33.7619524510152260 35.2100831357565198 18.6549870017233417
 33.7619524510152260 35.2100831357565198 21.5399826689644556
 33.7619524510152260 35.2100831357565198 24.4249783362055695
 33.7619524510152260 35.2100831357565198 27.3099740034466834
 33.7619524510152260 35.2100831357565198 30.1949696706877972
 33.7619524510152260 35.2100831357565198 33.0799653379289111
 33.7619524510152260 35.2100831357565198 35.9649610051700250
 33.7619524510152260 35.2100831357565198 38.8499566724111389
 33.7619524510152260 35.2100831357565198 41.7349523396522528
 31.3857572059137020 33.4836762353461381 12.8849956672411139
 31.3857572059137020 33.4836762353461381 15.7699913344822278
 31.3857572059137020 33.4836762353461381 18.6549870017233417
 31.3857572059137020 33.4836762353461381 21.5399826689644556
 31.3857572059137020 33.4836762353461381 24.4249783362055695
 31.3857572059137020 33.4836762353461381 27.3099740034466834
 31.3857572059137020 33.4836762353461381 30.1949696706877972
 31.3857572059137020 33.4836762353461381 33.0799653379289111
 31.3857572059137020 33.4836762353461381 35.9649610051700250
 31.3857572059137020 33.4836762353461381 38.8499566724111389
 31.3857572059137020 33.4836762353461381 41.7349523396522528
 29.0095619608121815 31.7572693349357635 12.8849956672411139
 29.0095619608121815 31.7572693349357635 15.7699913344822278
 29.0095619608121815 31.7572693349357635 18.6549870017233417
 29.0095619608121815 31.7572693349357635 21.5399826689644556
 29.0095619608121815 31.7572693349357635 24.4249783362055695
 29.0095619608121815 31.7572693349357635 27.3099740034466834
 29.0095619608121815 31.7572693349357635 30.1949696706877972
 29.0095619608121815 31.7572693349357635 33.0799653379289111
 29.0095619608121815 31.7572693349357635 35.9649610051700250
 29.0095619608121815 31.7572693349357635 38.8499566724111389
 29.0095619608121815 31.7572693349357635 41.7349523396522528
 29.9171877805350732 28.9638842916594150 12.8849956672411139
 29.9171877805350732 28.9638842916594150 15.7699913344822278
 29.9171877805350732 28.9638842916594150 18.6549870017233417
 29.9171877805350732 28.9638842916594150 21.5399826689644556
 29.9171877805350732 28.9638842916594150 24.4249783362055695
 29.9171877805350732 28.9638842916594150 27.3099740034466834
 29.9171877805350732 28.9638842916594150 30.1949696706877972
 29.9171877805350732 28.9638842916594150 33.0799653379289111
 29.9171877805350732 28.9638842916594150 35.9649610051700250
 29.9171877805350732 28.9638842916594150 38.8499566724111389
 29.9171877805350732 28.9638842916594150 41.7349523396522528
 30.8248136002579685 26.1704992483830701 12.8849956672411139
 30.8248136002579685 26.1704992483830701 15.7699913344822278
 30.8248136002579685 26.1704992483830701 18.6549870017233417
 30.8248136002579685 26.1704992483830701 21.5399826689644556
 30.8248136002579685 26.1704992483830701 24.4249783362055695
 30.8248136002579685 26.1704992483830701 27.3099740034466834
 30.8248136002579685 26.1704992483830701 30.1949696706877972
 30.8248136002579685 26.1704992483830701 33.0799653379289111
 30.8248136002579685 26.1704992483830701 35.9649610051700250
 30.8248136002579685 26.1704992483830701 38.8499566724111389
 30.8248136002579685 26.1704992483830701 41.7349523396522528
 33.7619524510152260 26.1704992483830665 12.8849956672411139
 33.7619524510152260 26.1704992483830665 15.7699913344822278
 33.7619524510152260 26.1704992483830665 18.6549870017233417
 33.7619524510152260 26.1704992483830665 21.5399826689644556
 33.7619524510152260 26.1704992483830665 24.4249783362055695
 33.7619524510152260 26.1704992483830665 27.3099740034466834
 33.7619524510152260 26.1704992483830665 30.1949696706877972
 33.7619524510152260 26.1704992483830665 33.0799653379289111
 33.7619524510152260 26.1704992483830665 35.9649610051700250
 33.7619524510152260 26.1704992483830665 38.8499566724111389
 33.7619524510152260 26.1704992483830665 41.7349523396522528
 36.6990913017724836 26.1704992483830665 12.8849956672411139
 36.6990913017724836 26.1704992483830665 15.7699913344822278
 36.6990913017724836 26.1704992483830665 18.6549870017233417
 36.6990913017724836 26.1704992483830665 21.5399826689644556
 36.6990913017724836 26.1704992483830665 24.4249783362055695
 36.6990913017724836 26.1704992483830665 27.3099740034466834
 36.6990913017724836 26.1704992483830665 30.1949696706877972
 36.6990913017724836 26.1704992483830665 33.0799653379289111
 36.6990913017724836 26.1704992483830665 35.9649610051700250
 36.6990913017724836 26.1704992483830665 38.8499566724111389
 36.6990913017724836 26.1704992483830665 41.7349523396522528
 37.6067171214953788 28.9638842916594150 12.8849956672411139
 37.6067171214953788 28.9638842916594150 15.7699913344822278
 37.6067171214953788 28.9638842916594150 18.6549870017233417
 37.6067171214953788 28.9638842916594150 21.5399826689644556
 37.6067171214953788 28.9638842916594150 24.4249783362055695
 37.6067171214953788 28.9638842916594150 27.3099740034466834
 37.6067171214953788 28.9638842916594150 30.1949696706877972
 37.6067171214953788 28.9638842916594150 33.0799653379289111
 37.6067171214953788 28.9638842916594150 35.9649610051700250
 37.6067171214953788 28.9638842916594150 38.8499566724111389
 37.6067171214953788 28.9638842916594150 41.7349523396522528
 40.8905381863197945 32.5293419721642252 14.3274935008616708
 40.8905381863197945 32.5293419721642252 17.2124891681027847
 40.8905381863197945 32.5293419721642252 20.0974848353438986
 40.8905381863197945 32.5293419721642252 22.9824805025850125
 40.8905381863197945 32.5293419721642252 25.8674761698261264
 40.8905381863197945 32.5293419721642252 28.7524718370672403
 40.8905381863197945 32.5293419721642252 31.6374675043083542
 40.8905381863197945 32.5293419721642252 34.5224631715494681
 40.8905381863197945 32.5293419721642252 37.4074588387905820
 40.8905381863197945 32.5293419721642252 40.2924545060316959
 38.5143429412182741 34.2557488725745998 14.3274935008616708
 38.5143429412182741 34.2557488725745998 17.2124891681027847
 38.5143429412182741 34.2557488725745998 20.0974848353438986
 38.5143429412182741 34.2557488725745998 22.9824805025850125
 38.5143429412182741 34.2557488725745998 25.8674761698261264
 38.5143429412182741 34.2557488725745998 28.7524718370672403
 38.5143429412182741 34.2557488725745998 31.6374675043083542
 38.5143429412182741 34.2557488725745998 34.5224631715494681
 38.5143429412182741 34.2557488725745998 37.4074588387905820
 38.5143429412182741 34.2557488725745998 40.2924545060316959
 36.1381476961167465 35.9821557729849815 14.3274935008616708
 36.1381476961167465 35.9821557729849815 17.2124891681027847
 36.1381476961167465 35.9821557729849815 20.0974848353438986
 36.1381476961167465 35.9821557729849815 22.9824805025850125
 36.1381476961167465 35.9821557729849815 25.8674761698261264
 36.1381476961167465 35.9821557729849815 28.7524718370672403
 36.1381476961167465 35.9821557729849815 31.6374675043083542
 36.1381476961167465 35.9821557729849815 34.5224631715494681
 36.1381476961167465 35.9821557729849815 37.4074588387905820
 36.1381476961167465 35.9821557729849815 40.2924545060316959
 33.7619524510152260 37.7085626733953632 14.3274935008616708
 33.7619524510152260 37.7085626733953632 17.2124891681027847
 33.7619524510152260 37.7085626733953632 20.0974848353438986
 33.7619524510152260 37.7085626733953632 22.9824805025850125
 33.7619524510152260 37.7085626733953632 25.8674761698261264
 33.7619524510152260 37.7085626733953632 28.7524718370672403
 33.7619524510152260 37.7085626733953632 31.6374675043083542
 33.7619524510152260 37.7085626733953632 34.5224631715494681
 33.7619524510152260 37.7085626733953632 37.4074588387905820
 33.7619524510152260 37.7085626733953632 40.2924545060316959
 31.3857572059137055 35.9821557729849815 14.3274935008616708
 31.3857572059137055 35.9821557729849815 17.2124891681027847
 31.3857572059137055 35.9821557729849815 20.0974848353438986
 31.3857572059137055 35.9821557729849815 22.9824805025850125
 31.3857572059137055 35.9821557729849815 25.8674761698261264
 31.3857572059137055 35.9821557729849815 28.7524718370672403
 31.3857572059137055 35.9821557729849815 31.6374675043083542
 31.3857572059137055 35.9821557729849815 34.5224631715494681
 31.3857572059137055 35.9821557729849815 37.4074588387905820
 31.3857572059137055 35.9821557729849815 40.2924545060316959
 29.0095619608121815 34.2557488725746069 14.3274935008616708
 29.0095619608121815 34.2557488725746069 17.2124891681027847
 29.0095619608121815 34.2557488725746069 20.0974848353438986
 29.0095619608121815 34.2557488725746069 22.9824805025850125
 29.0095619608121815 34.2557488725746069 25.8674761698261264
 29.0095619608121815 34.2557488725746069 28.7524718370672403
 29.0095619608121815 34.2557488725746069 31.6374675043083542
 29.0095619608121815 34.2557488725746069 34.5224631715494681
 29.0095619608121815 34.2557488725746069 37.4074588387905820
 29.0095619608121815 34.2557488725746069 40.2924545060316959
 26.6333667157106575 32.5293419721642252 14.3274935008616708
 26.6333667157106575 32.5293419721642252 17.2124891681027847
 26.6333667157106575 32.5293419721642252 20.0974848353438986
 26.6333667157106575 32.5293419721642252 22.9824805025850125
 26.6333667157106575 32.5293419721642252 25.8674761698261264
 26.6333667157106575 32.5293419721642252 28.7524718370672403
 26.6333667157106575 32.5293419721642252 31.6374675043083542
 26.6333667157106575 32.5293419721642252 34.5224631715494681
 26.6333667157106575 32.5293419721642252 37.4074588387905820
 26.6333667157106575 32.5293419721642252 40.2924545060316959
 27.5409925354335527 29.7359569288878802 14.3274935008616708
 27.5409925354335527 29.7359569288878802 17.2124891681027847
 27.5409925354335527 29.7359569288878802 20.0974848353438986
 27.5409925354335527 29.7359569288878802 22.9824805025850125
 27.5409925354335527 29.7359569288878802 25.8674761698261264
 27.5409925354335527 29.7359569288878802 28.7524718370672403
 27.5409925354335527 29.7359569288878802 31.6374675043083542
 27.5409925354335527 29.7359569288878802 34.5224631715494681
 27.5409925354335527 29.7359569288878802 37.4074588387905820
 27.5409925354335527 29.7359569288878802 40.2924545060316959
 28.4486183551564480 26.9425718856115317 14.3274935008616708
 28.4486183551564480 26.9425718856115317 17.2124891681027847
 28.4486183551564480 26.9425718856115317 20.0974848353438986
 28.4486183551564480 26.9425718856115317 22.9824805025850125
 28.4486183551564480 26.9425718856115317 25.8674761698261264
 28.4486183551564480 26.9425718856115317 28.7524718370672403
 28.4486183551564480 26.9425718856115317 31.6374675043083542
 28.4486183551564480 26.9425718856115317 34.5224631715494681
 28.4486183551564480 26.9425718856115317 37.4074588387905820
 28.4486183551564480 26.9425718856115317 40.2924545060316959
 29.3562441748793432 24.1491868423351832 14.3274935008616708
 29.3562441748793432 24.1491868423351832 17.2124891681027847
 29.3562441748793432 24.1491868423351832 20.0974848353438986
 29.3562441748793432 24.1491868423351832 22.9824805025850125
 29.3562441748793432 24.1491868423351832 25.8674761698261264
 29.3562441748793432 24.1491868423351832 28.7524718370672403
 29.3562441748793432 24.1491868423351832 31.6374675043083542
 29.3562441748793432 24.1491868423351832 34.5224631715494681
 29.3562441748793432 24.1491868423351832 37.4074588387905820
 29.3562441748793432 24.1491868423351832 40.2924545060316959
 32.2933830256365937 24.1491868423351832 14.3274935008616708
 32.2933830256365937 24.1491868423351832 17.2124891681027847
 32.2933830256365937 24.1491868423351832 20.0974848353438986
 32.2933830256365937 24.1491868423351832 22.9824805025850125
 32.2933830256365937 24.1491868423351832 25.8674761698261264
 32.2933830256365937 24.1491868423351832 28.7524718370672403
 32.2933830256365937 24.1491868423351832 31.6374675043083542
 32.2933830256365937 24.1491868423351832 34.5224631715494681
 32.2933830256365937 24.1491868423351832 37.4074588387905820
 32.2933830256365937 24.1491868423351832 40.2924545060316959
 35.2305218763938512 24.1491868423351832 14.3274935008616708
 35.2305218763938512 24.1491868423351832 17.2124891681027847
 35.2305218763938512 24.1491868423351832 20.0974848353438986
 35.2305218763938512 24.1491868423351832 22.9824805025850125
 35.2305218763938512 24.1491868423351832 25.8674761698261264
 35.2305218763938512 24.1491868423351832 28.7524718370672403
 35.2305218763938512 24.1491868423351832 31.6374675043083542
 35.2305218763938512 24.1491868423351832 34.5224631715494681
 35.2305218763938512 24.1491868423351832 37.4074588387905820
 35.2305218763938512 24.1491868423351832 40.2924545060316959
 38.1676607271511088 24.1491868423351832 14.3274935008616708
 38.1676607271511088 24.1491868423351832 17.2124891681027847
 38.1676607271511088 24.1491868423351832 20.0974848353438986
 38.1676607271511088 24.1491868423351832 22.9824805025850125
 38.1676607271511088 24.1491868423351832 25.8674761698261264
 38.1676607271511088 24.1491868423351832 28.7524718370672403
 38.1676607271511088 24.1491868423351832 31.6374675043083542
 38.1676607271511088 24.1491868423351832 34.5224631715494681
 38.1676607271511088 24.1491868423351832 37.4074588387905820
 38.1676607271511088 24.1491868423351832 40.2924545060316959
 39.0752865468740040 26.9425718856115317 14.3274935008616708
 39.0752865468740040 26.9425718856115317 17.2124891681027847
 39.0752865468740040 26.9425718856115317 20.0974848353438986
 39.0752865468740040 26.9425718856115317 22.9824805025850125
 39.0752865468740040 26.9425718856115317 25.8674761698261264
 39.0752865468740040 26.9425718856115317 28.7524718370672403
 39.0752865468740040 26.9425718856115317 31.6374675043083542
 39.0752865468740040 26.9425718856115317 34.5224631715494681
 39.0752865468740040 26.9425718856115317 37.4074588387905820
 39.0752865468740040 26.9425718856115317 40.2924545060316959
 39.9829123665968993 29.7359569288878767 14.3274935008616708
 39.9829123665968993 29.7359569288878767 17.2124891681027847
 39.9829123665968993 29.7359569288878767 20.0974848353438986
 39.9829123665968993 29.7359569288878767 22.9824805025850125
 39.9829123665968993 29.7359569288878767 25.8674761698261264
 39.9829123665968993 29.7359569288878767 28.7524718370672403
 39.9829123665968993 29.7359569288878767 31.6374675043083542
 39.9829123665968993 29.7359569288878767 34.5224631715494681
 39.9829123665968993 29.7359569288878767 37.4074588387905820
 39.9829123665968993 29.7359569288878767 40.2924545060316959
 43.2667334314213150 33.3014146093926868 15.7699913344822278
 43.2667334314213150 33.3014146093926868 18.6549870017233417
 43.2667334314213150 33.3014146093926868 21.5399826689644556
 43.2667334314213150 33.3014146093926868 24.4249783362055695
 43.2667334314213150 33.3014146093926868 27.3099740034466834
 43.2667334314213150 33.3014146093926868 30.1949696706877972
 43.2667334314213150 33.3014146093926868 33.0799653379289111
 43.2667334314213150 33.3014146093926868 35.9649610051700250
 43.2667334314213150 33.3014146093926868 38.8499566724111389
 40.8905381863197945 35.0278215098030685 15.7699913344822278
 40.8905381863197945 35.0278215098030685 18.6549870017233417
 40.8905381863197945 35.0278215098030685 21.5399826689644556
 40.8905381863197945 35.0278215098030685 24.4249783362055695
 40.8905381863197945 35.0278215098030685 27.3099740034466834
 40.8905381863197945 35.0278215098030685 30.1949696706877972
 40.8905381863197945 35.0278215098030685 33.0799653379289111
 40.8905381863197945 35.0278215098030685 35.9649610051700250
 40.8905381863197945 35.0278215098030685 38.8499566724111389
 38.5143429412182741 36.7542284102134431 15.7699913344822278
 38.5143429412182741 36.7542284102134431 18.6549870017233417
 38.5143429412182741 36.7542284102134431 21.5399826689644556
 38.5143429412182741 36.7542284102134431 24.4249783362055695
 38.5143429412182741 36.7542284102134431 27.3099740034466834
 38.5143429412182741 36.7542284102134431 30.1949696706877972
 38.5143429412182741 36.7542284102134431 33.0799653379289111
 38.5143429412182741 36.7542284102134431 35.9649610051700250
 38.5143429412182741 36.7542284102134431 38.8499566724111389
 36.1381476961167465 38.4806353106238248 15.7699913344822278
 36.1381476961167465 38.4806353106238248 18.6549870017233417
 36.1381476961167465 38.4806353106238248 21.5399826689644556
 36.1381476961167465 38.4806353106238248 24.4249783362055695
 36.1381476961167465 38.4806353106238248 27.3099740034466834
 36.1381476961167465 38.4806353106238248 30.1949696706877972
 36.1381476961167465 38.4806353106238248 33.0799653379289111
 36.1381476961167465 38.4806353106238248 35.9649610051700250
 36.1381476961167465 38.4806353106238248 38.8499566724111389
 33.7619524510152260 40.2070422110342065 15.7699913344822278
 33.7619524510152260 40.2070422110342065 18.6549870017233417
 33.7619524510152260 40.2070422110342065 21.5399826689644556
 33.7619524510152260 40.2070422110342065 24.4249783362055695
 33.7619524510152260 40.2070422110342065 27.3099740034466834
 33.7619524510152260 40.2070422110342065 30.1949696706877972
 33.7619524510152260 40.2070422110342065 33.0799653379289111
 33.7619524510152260 40.2070422110342065 35.9649610051700250
 33.7619524510152260 40.2070422110342065 38.8499566724111389
 31.3857572059137055 38.4806353106238248 15.7699913344822278
 31.3857572059137055 38.4806353106238248 18.6549870017233417
 31.3857572059137055 38.4806353106238248 21.5399826689644556
 31.3857572059137055 38.4806353106238248 24.4249783362055695
 31.3857572059137055 38.4806353106238248 27.3099740034466834
 31.3857572059137055 38.4806353106238248 30.1949696706877972
 31.3857572059137055 38.4806353106238248 33.0799653379289111
 31.3857572059137055 38.4806353106238248 35.9649610051700250
 31.3857572059137055 38.4806353106238248 38.8499566724111389
 29.0095619608121815 36.7542284102134431 15.7699913344822278
 29.0095619608121815 36.7542284102134431 18.6549870017233417
 29.0095619608121815 36.7542284102134431 21.5399826689644556
 29.0095619608121815 36.7542284102134431 24.4249783362055695
 29.0095619608121815 36.7542284102134431 27.3099740034466834
 29.0095619608121815 36.7542284102134431 30.1949696706877972
 29.0095619608121815 36.7542284102134431 33.0799653379289111
 29.0095619608121815 36.7542284102134431 35.9649610051700250
 29.0095619608121815 36.7542284102134431 38.8499566724111389
 26.6333667157106575 35.0278215098030685 15.7699913344822278
 26.6333667157106575 35.0278215098030685 18.6549870017233417
 26.6333667157106575 35.0278215098030685 21.5399826689644556
 26.6333667157106575 35.0278215098030685 24.4249783362055695
 26.6333667157106575 35.0278215098030685 27.3099740034466834
 26.6333667157106575 35.0278215098030685 30.1949696706877972
 26.6333667157106575 35.0278215098030685 33.0799653379289111
 26.6333667157106575 35.0278215098030685 35.9649610051700250
 26.6333667157106575 35.0278215098030685 38.8499566724111389
 24.2571714706091370 33.3014146093926868 15.7699913344822278
 24.2571714706091370 33.3014146093926868 18.6549870017233417
 24.2571714706091370 33.3014146093926868 21.5399826689644556
 24.2571714706091370 33.3014146093926868 24.4249783362055695
 24.2571714706091370 33.3014146093926868 27.3099740034466834
 24.2571714706091370 33.3014146093926868 30.1949696706877972
 24.2571714706091370 33.3014146093926868 33.0799653379289111
 24.2571714706091370 33.3014146093926868 35.9649610051700250
 24.2571714706091370 33.3014146093926868 38.8499566724111389
 25.1647972903320287 30.5080295661163419 15.7699913344822278
 25.1647972903320287 30.5080295661163419 18.6549870017233417
 25.1647972903320287 30.5080295661163419 21.5399826689644556
 25.1647972903320287 30.5080295661163419 24.4249783362055695
 25.1647972903320287 30.5080295661163419 27.3099740034466834
 25.1647972903320287 30.5080295661163419 30.1949696706877972
 25.1647972903320287 30.5080295661163419 33.0799653379289111
 25.1647972903320287 30.5080295661163419 35.9649610051700250
 25.1647972903320287 30.5080295661163419 38.8499566724111389
 26.0724231100549240 27.7146445228399969 15.7699913344822278
 26.0724231100549240 27.7146445228399969 18.6549870017233417
 26.0724231100549240 27.7146445228399969 21.5399826689644556
 26.0724231100549240 27.7146445228399969 24.4249783362055695
 26.0724231100549240 27.7146445228399969 27.3099740034466834
 26.0724231100549240 27.7146445228399969 30.1949696706877972
 26.0724231100549240 27.7146445228399969 33.0799653379289111
 26.0724231100549240 27.7146445228399969 35.9649610051700250
 26.0724231100549240 27.7146445228399969 38.8499566724111389
 26.9800489297778192 24.9212594795636484 15.7699913344822278
 26.9800489297778192 24.9212594795636484 18.6549870017233417
 26.9800489297778192 24.9212594795636484 21.5399826689644556
 26.9800489297778192 24.9212594795636484 24.4249783362055695
 26.9800489297778192 24.9212594795636484 27.3099740034466834
 26.9800489297778192 24.9212594795636484 30.1949696706877972
 26.9800489297778192 24.9212594795636484 33.0799653379289111
 26.9800489297778192 24.9212594795636484 35.9649610051700250
 26.9800489297778192 24.9212594795636484 38.8499566724111389
 27.8876747495007109 22.1278744362872999 15.7699913344822278
 27.8876747495007109 22.1278744362872999 18.6549870017233417
 27.8876747495007109 22.1278744362872999 21.5399826689644556
 27.8876747495007109 22.1278744362872999 24.4249783362055695
 27.8876747495007109 22.1278744362872999 27.3099740034466834
 27.8876747495007109 22.1278744362872999 30.1949696706877972
 27.8876747495007109 22.1278744362872999 33.0799653379289111
 27.8876747495007109 22.1278744362872999 35.9649610051700250
 27.8876747495007109 22.1278744362872999 38.8499566724111389
 30.8248136002579685 22.1278744362872999 15.7699913344822278
 30.8248136002579685 22.1278744362872999 18.6549870017233417
 30.8248136002579685 22.1278744362872999 21.5399826689644556
 30.8248136002579685 22.1278744362872999 24.4249783362055695
 30.8248136002579685 22.1278744362872999 27.3099740034466834
 30.8248136002579685 22.1278744362872999 30.1949696706877972
 30.8248136002579685 22.1278744362872999 33.0799653379289111
 30.8248136002579685 22.1278744362872999 35.9649610051700250
 30.8248136002579685 22.1278744362872999 38.8499566724111389
 33.7619524510152260 22.1278744362872999 15.7699913344822278
 33.7619524510152260 22.1278744362872999 18.6549870017233417
 33.7619524510152260 22.1278744362872999 21.5399826689644556
 33.7619524510152260 22.1278744362872999 24.4249783362055695
 33.7619524510152260 22.1278744362872999 27.3099740034466834
 33.7619524510152260 22.1278744362872999 30.1949696706877972
 33.7619524510152260 22.1278744362872999 33.0799653379289111
 33.7619524510152260 22.1278744362872999 35.9649610051700250
 33.7619524510152260 22.1278744362872999 38.8499566724111389
 36.6990913017724836 22.1278744362872999 15.7699913344822278
 36.6990913017724836 22.1278744362872999 18.6549870017233417
 36.6990913017724836 22.1278744362872999 21.5399826689644556
 36.6990913017724836 22.1278744362872999 24.4249783362055695
 36.6990913017724836 22.1278744362872999 27.3099740034466834
 36.6990913017724836 22.1278744362872999 30.1949696706877972
 36.6990913017724836 22.1278744362872999 33.0799653379289111
 36.6990913017724836 22.1278744362872999 35.9649610051700250
 36.6990913017724836 22.1278744362872999 38.8499566724111389
 39.6362301525297340 22.1278744362872999 15.7699913344822278
 39.6362301525297340 22.1278744362872999 18.6549870017233417
 39.6362301525297340 22.1278744362872999 21.5399826689644556
 39.6362301525297340 22.1278744362872999 24.4249783362055695
 39.6362301525297340 22.1278744362872999 27.3099740034466834
 39.6362301525297340 22.1278744362872999 30.1949696706877972
 39.6362301525297340 22.1278744362872999 33.0799653379289111
 39.6362301525297340 22.1278744362872999 35.9649610051700250
 39.6362301525297340 22.1278744362872999 38.8499566724111389
 40.5438559722526293 24.9212594795636448 15.7699913344822278