Pt 
 1.0000000000000000
    43.5200000000000031    0.0000000000000000    0.0000000000000000
     0.0000000000000000   43.5200000000000031    0.0000000000000000
     0.0000000000000000    0.0000000000000000   43.5200000000000031
 Pt 
 338
Cartesian
 10.0000000000000036 19.8000000000000043 21.7600000000000051
 10.0000000000000036 21.7600000000000051 19.8000000000000043
 10.0000000000000036 21.7600000000000051 23.7200000000000060
 10.0000000000000036 23.7200000000000060 21.7600000000000051
 11.9600000000000044 17.8400000000000034 21.7600000000000051
 13.9200000000000053 15.8800000000000043 21.7600000000000051
 13.9200000000000053 17.8400000000000034 19.8000000000000043
 13.9200000000000053 17.8400000000000034 23.7200000000000060
 11.9600000000000044 21.7600000000000051 17.8400000000000034
 13.9200000000000053 19.8000000000000043 17.8400000000000034
 13.9200000000000053 21.7600000000000051 15.8800000000000043
 11.9600000000000044 19.8000000000000043 19.8000000000000043
 11.9600000000000044 21.7600000000000051 21.7600000000000051
 13.9200000000000053 19.8000000000000043 21.7600000000000051
 13.9200000000000053 21.7600000000000051 19.8000000000000043
 11.9600000000000044 19.8000000000000043 23.7200000000000060
 11.9600000000000044 21.7600000000000051 25.6800000000000068
 13.9200000000000053 19.8000000000000043 25.6800000000000068
 13.9200000000000053 21.7600000000000051 23.7200000000000060
 13.9200000000000053 21.7600000000000051 27.6400000000000077
 13.9200000000000053 23.7200000000000060 17.8400000000000034
 11.9600000000000044 23.7200000000000060 19.8000000000000043
 11.9600000000000044 25.6800000000000068 21.7600000000000051
 13.9200000000000053 23.7200000000000060 21.7600000000000051
 13.9200000000000053 25.6800000000000068 19.8000000000000043
 11.9600000000000044 23.7200000000000060 23.7200000000000060
 13.9200000000000053 23.7200000000000060 25.6800000000000068
 13.9200000000000053 25.6800000000000068 23.7200000000000060
 13.9200000000000053 27.6400000000000077 21.7600000000000051
 15.8800000000000043 13.9200000000000053 21.7600000000000051
 17.8400000000000034 11.9600000000000044 21.7600000000000051
 17.8400000000000034 13.9200000000000053 19.8000000000000043
 17.8400000000000034 13.9200000000000053 23.7200000000000060
 15.8800000000000043 17.8400000000000034 17.8400000000000034
 17.8400000000000034 15.8800000000000043 17.8400000000000034
 17.8400000000000034 17.8400000000000034 15.8800000000000043
 15.8800000000000043 15.8800000000000043 19.8000000000000043
 15.8800000000000043 17.8400000000000034 21.7600000000000051
 17.8400000000000034 15.8800000000000043 21.7600000000000051
 17.8400000000000034 17.8400000000000034 19.8000000000000043
 15.8800000000000043 15.8800000000000043 23.7200000000000060
 15.8800000000000043 17.8400000000000034 25.6800000000000068
 17.8400000000000034 15.8800000000000043 25.6800000000000068
 17.8400000000000034 17.8400000000000034 23.7200000000000060
 17.8400000000000034 17.8400000000000034 27.6400000000000077
 15.8800000000000043 21.7600000000000051 13.9200000000000053
 17.8400000000000034 19.8000000000000043 13.9200000000000053
 17.8400000000000034 21.7600000000000051 11.9600000000000044
 15.8800000000000043 19.8000000000000043 15.8800000000000043
 15.8800000000000043 21.7600000000000051 17.8400000000000034
 17.8400000000000034 19.8000000000000043 17.8400000000000034
 17.8400000000000034 21.7600000000000051 15.8800000000000043
 15.8800000000000043 19.8000000000000043 19.8000000000000043
 15.8800000000000043 21.7600000000000051 21.7600000000000051
 17.8400000000000034 19.8000000000000043 21.7600000000000051
 17.8400000000000034 21.7600000000000051 19.8000000000000043
 15.8800000000000043 19.8000000000000043 23.7200000000000060
 15.8800000000000043 21.7600000000000051 25.6800000000000068
 17.8400000000000034 19.8000000000000043 25.6800000000000068
 17.8400000000000034 21.7600000000000051 23.7200000000000060
 15.8800000000000043 19.8000000000000043 27.6400000000000077
 15.8800000000000043 21.7600000000000051 29.6000000000000085
 17.8400000000000034 19.8000000000000043 29.6000000000000085
 17.8400000000000034 21.7600000000000051 27.6400000000000077
 17.8400000000000034 21.7600000000000051 31.5600000000000023
 17.8400000000000034 23.7200000000000060 13.9200000000000053
 15.8800000000000043 23.7200000000000060 15.8800000000000043
 15.8800000000000043 25.6800000000000068 17.8400000000000034
 17.8400000000000034 23.7200000000000060 17.8400000000000034
 17.8400000000000034 25.6800000000000068 15.8800000000000043
 15.8800000000000043 23.7200000000000060 19.8000000000000043
 15.8800000000000043 25.6800000000000068 21.7600000000000051
 17.8400000000000034 23.7200000000000060 21.7600000000000051
 17.8400000000000034 25.6800000000000068 19.8000000000000043
 15.8800000000000043 23.7200000000000060 23.7200000000000060
 15.8800000000000043 25.6800000000000068 25.6800000000000068
 17.8400000000000034 23.7200000000000060 25.6800000000000068
 17.8400000000000034 25.6800000000000068 23.7200000000000060
 15.8800000000000043 23.7200000000000060 27.6400000000000077
 17.8400000000000034 23.7200000000000060 29.6000000000000085
 17.8400000000000034 25.6800000000000068 27.6400000000000077
 17.8400000000000034 27.6400000000000077 17.8400000000000034
 15.8800000000000043 27.6400000000000077 19.8000000000000043
 15.8800000000000043 29.6000000000000085 21.7600000000000051
 17.8400000000000034 27.6400000000000077 21.7600000000000051
 17.8400000000000034 29.6000000000000085 19.8000000000000043
 15.8800000000000043 27.6400000000000077 23.7200000000000060
 17.8400000000000034 27.6400000000000077 25.6800000000000068
 17.8400000000000034 29.6000000000000085 23.7200000000000060
 17.8400000000000034 31.5600000000000023 21.7600000000000051
 19.8000000000000043 10.0000000000000036 21.7600000000000051
 21.7600000000000051 10.0000000000000036 19.8000000000000043
 21.7600000000000051 10.0000000000000036 23.7200000000000060
 19.8000000000000043 13.9200000000000053 17.8400000000000034
 21.7600000000000051 11.9600000000000044 17.8400000000000034
 21.7600000000000051 13.9200000000000053 15.8800000000000043
 19.8000000000000043 11.9600000000000044 19.8000000000000043
 19.8000000000000043 13.9200000000000053 21.7600000000000051
 21.7600000000000051 11.9600000000000044 21.7600000000000051
 21.7600000000000051 13.9200000000000053 19.8000000000000043
 19.8000000000000043 11.9600000000000044 23.7200000000000060
 19.8000000000000043 13.9200000000000053 25.6800000000000068
 21.7600000000000051 11.9600000000000044 25.6800000000000068
 21.7600000000000051 13.9200000000000053 23.7200000000000060
 21.7600000000000051 13.9200000000000053 27.6400000000000077
 19.8000000000000043 17.8400000000000034 13.9200000000000053
 21.7600000000000051 15.8800000000000043 13.9200000000000053
 21.7600000000000051 17.8400000000000034 11.9600000000000044
 19.8000000000000043 15.8800000000000043 15.8800000000000043
 19.8000000000000043 17.8400000000000034 17.8400000000000034
 21.7600000000000051 15.8800000000000043 17.8400000000000034
 21.7600000000000051 17.8400000000000034 15.8800000000000043
 19.8000000000000043 15.8800000000000043 19.8000000000000043
 19.8000000000000043 17.8400000000000034 21.7600000000000051
 21.7600000000000051 15.8800000000000043 21.7600000000000051
 21.7600000000000051 17.8400000000000034 19.8000000000000043
 19.8000000000000043 15.8800000000000043 23.7200000000000060
 19.8000000000000043 17.8400000000000034 25.6800000000000068
 21.7600000000000051 15.8800000000000043 25.6800000000000068
 21.7600000000000051 17.8400000000000034 23.7200000000000060
 19.8000000000000043 15.8800000000000043 27.6400000000000077
 19.8000000000000043 17.8400000000000034 29.6000000000000085
 21.7600000000000051 15.8800000000000043 29.6000000000000085
 21.7600000000000051 17.8400000000000034 27.6400000000000077
 21.7600000000000051 17.8400000000000034 31.5600000000000023
 19.8000000000000043 21.7600000000000051 10.0000000000000036
 21.7600000000000051 19.8000000000000043 10.0000000000000036
 19.8000000000000043 19.8000000000000043 11.9600000000000044
 19.8000000000000043 21.7600000000000051 13.9200000000000053
 21.7600000000000051 19.8000000000000043 13.9200000000000053
 21.7600000000000051 21.7600000000000051 11.9600000000000044
 19.8000000000000043 19.8000000000000043 15.8800000000000043
 19.8000000000000043 21.7600000000000051 17.8400000000000034
 21.7600000000000051 19.8000000000000043 17.8400000000000034
 21.7600000000000051 21.7600000000000051 15.8800000000000043
 19.8000000000000043 19.8000000000000043 19.8000000000000043
 19.8000000000000043 21.7600000000000051 21.7600000000000051
 21.7600000000000051 19.8000000000000043 21.7600000000000051
 21.7600000000000051 21.7600000000000051 19.8000000000000043
 19.8000000000000043 19.8000000000000043 23.7200000000000060
 19.8000000000000043 21.7600000000000051 25.6800000000000068
 21.7600000000000051 19.8000000000000043 25.6800000000000068
 21.7600000000000051 21.7600000000000051 23.7200000000000060
 19.8000000000000043 19.8000000000000043 27.6400000000000077
 19.8000000000000043 21.7600000000000051 29.6000000000000085
 21.7600000000000051 19.8000000000000043 29.6000000000000085
 21.7600000000000051 21.7600000000000051 27.6400000000000077
 19.8000000000000043 19.8000000000000043 31.5600000000000023
 19.8000000000000043 21.7600000000000051 33.5200000000000031
 21.7600000000000051 19.8000000000000043 33.5200000000000031
 21.7600000000000051 21.7600000000000051 31.5600000000000023
 21.7600000000000051 23.7200000000000060 10.0000000000000036
 19.8000000000000043 23.7200000000000060 11.9600000000000044
 19.8000000000000043 25.6800000000000068 13.9200000000000053
 21.7600000000000051 23.7200000000000060 13.9200000000000053
 21.7600000000000051 25.6800000000000068 11.9600000000000044
 19.8000000000000043 23.7200000000000060 15.8800000000000043
 19.8000000000000043 25.6800000000000068 17.8400000000000034
 21.7600000000000051 23.7200000000000060 17.8400000000000034
 21.7600000000000051 25.6800000000000068 15.8800000000000043
 19.8000000000000043 23.7200000000000060 19.8000000000000043
 19.8000000000000043 25.6800000000000068 21.7600000000000051
 21.7600000000000051 23.7200000000000060 21.7600000000000051
 21.7600000000000051 25.6800000000000068 19.8000000000000043
 19.8000000000000043 23.7200000000000060 23.7200000000000060
 19.8000000000000043 25.6800000000000068 25.6800000000000068
 21.7600000000000051 23.7200000000000060 25.6800000000000068
 21.7600000000000051 25.6800000000000068 23.7200000000000060
 19.8000000000000043 23.7200000000000060 27.6400000000000077
 19.8000000000000043 25.6800000000000068 29.6000000000000085
 21.7600000000000051 23.7200000000000060 29.6000000000000085
 21.7600000000000051 25.6800000000000068 27.6400000000000077
 19.8000000000000043 23.7200000000000060 31.5600000000000023
 21.7600000000000051 23.7200000000000060 33.5200000000000031
 21.7600000000000051 25.6800000000000068 31.5600000000000023
 21.7600000000000051 27.6400000000000077 13.9200000000000053
 19.8000000000000043 27.6400000000000077 15.8800000000000043
 19.8000000000000043 29.6000000000000085 17.8400000000000034
 21.7600000000000051 27.6400000000000077 17.8400000000000034
 21.7600000000000051 29.6000000000000085 15.8800000000000043
 19.8000000000000043 27.6400000000000077 19.8000000000000043
 19.8000000000000043 29.6000000000000085 21.7600000000000051
 21.7600000000000051 27.6400000000000077 21.7600000000000051
 21.7600000000000051 29.6000000000000085 19.8000000000000043
 19.8000000000000043 27.6400000000000077 23.7200000000000060
 19.8000000000000043 29.6000000000000085 25.6800000000000068
 21.7600000000000051 27.6400000000000077 25.6800000000000068
 21.7600000000000051 29.6000000000000085 23.7200000000000060
 19.8000000000000043 27.6400000000000077 27.6400000000000077
 21.7600000000000051 27.6400000000000077 29.6000000000000085
 21.7600000000000051 29.6000000000000085 27.6400000000000077
 21.7600000000000051 31.5600000000000023 17.8400000000000034
 19.8000000000000043 31.5600000000000023 19.8000000000000043
 19.8000000000000043 33.5200000000000031 21.7600000000000051
 21.7600000000000051 31.5600000000000023 21.7600000000000051
 21.7600000000000051 33.5200000000000031 19.8000000000000043
 19.8000000000000043 31.5600000000000023 23.7200000000000060
 21.7600000000000051 31.5600000000000023 25.6800000000000068
 21.7600000000000051 33.5200000000000031 23.7200000000000060
 23.7200000000000060 10.0000000000000036 21.7600000000000051
 23.7200000000000060 13.9200000000000053 17.8400000000000034
 23.7200000000000060 11.9600000000000044 19.8000000000000043
 23.7200000000000060 13.9200000000000053 21.7600000000000051
 25.6800000000000068 11.9600000000000044 21.7600000000000051
 25.6800000000000068 13.9200000000000053 19.8000000000000043
 23.7200000000000060 11.9600000000000044 23.7200000000000060
 23.7200000000000060 13.9200000000000053 25.6800000000000068
 25.6800000000000068 13.9200000000000053 23.7200000000000060
 23.7200000000000060 17.8400000000000034 13.9200000000000053
 23.7200000000000060 15.8800000000000043 15.8800000000000043
 23.7200000000000060 17.8400000000000034 17.8400000000000034
 25.6800000000000068 15.8800000000000043 17.8400000000000034
 25.6800000000000068 17.8400000000000034 15.8800000000000043
 23.7200000000000060 15.8800000000000043 19.8000000000000043
 23.7200000000000060 17.8400000000000034 21.7600000000000051
 25.6800000000000068 15.8800000000000043 21.7600000000000051
 25.6800000000000068 17.8400000000000034 19.8000000000000043
 23.7200000000000060 15.8800000000000043 23.7200000000000060
 23.7200000000000060 17.8400000000000034 25.6800000000000068
 25.6800000000000068 15.8800000000000043 25.6800000000000068
 25.6800000000000068 17.8400000000000034 23.7200000000000060
 23.7200000000000060 15.8800000000000043 27.6400000000000077
 23.7200000000000060 17.8400000000000034 29.6000000000000085
 25.6800000000000068 17.8400000000000034 27.6400000000000077
 23.7200000000000060 21.7600000000000051 10.0000000000000036
 23.7200000000000060 19.8000000000000043 11.9600000000000044
 23.7200000000000060 21.7600000000000051 13.9200000000000053
 25.6800000000000068 19.8000000000000043 13.9200000000000053
 25.6800000000000068 21.7600000000000051 11.9600000000000044
 23.7200000000000060 19.8000000000000043 15.8800000000000043
 23.7200000000000060 21.7600000000000051 17.8400000000000034
 25.6800000000000068 19.8000000000000043 17.8400000000000034
 25.6800000000000068 21.7600000000000051 15.8800000000000043
 23.7200000000000060 19.8000000000000043 19.8000000000000043
 23.7200000000000060 21.7600000000000051 21.7600000000000051
 25.6800000000000068 19.8000000000000043 21.7600000000000051
 25.6800000000000068 21.7600000000000051 19.8000000000000043
 23.7200000000000060 19.8000000000000043 23.7200000000000060
 23.7200000000000060 21.7600000000000051 25.6800000000000068
 25.6800000000000068 19.8000000000000043 25.6800000000000068
 25.6800000000000068 21.7600000000000051 23.7200000000000060
 23.7200000000000060 19.8000000000000043 27.6400000000000077
 23.7200000000000060 21.7600000000000051 29.6000000000000085
 25.6800000000000068 19.8000000000000043 29.6000000000000085
 25.6800000000000068 21.7600000000000051 27.6400000000000077
 23.7200000000000060 19.8000000000000043 31.5600000000000023
 23.7200000000000060 21.7600000000000051 33.5200000000000031
 25.6800000000000068 21.7600000000000051 31.5600000000000023
 23.7200000000000060 23.7200000000000060 11.9600000000000044
 23.7200000000000060 25.6800000000000068 13.9200000000000053
 25.6800000000000068 23.7200000000000060 13.9200000000000053
 23.7200000000000060 23.7200000000000060 15.8800000000000043
 23.7200000000000060 25.6800000000000068 17.8400000000000034
 25.6800000000000068 23.7200000000000060 17.8400000000000034
 25.6800000000000068 25.6800000000000068 15.8800000000000043
 23.7200000000000060 23.7200000000000060 19.8000000000000043
 23.7200000000000060 25.6800000000000068 21.7600000000000051
 25.6800000000000068 23.7200000000000060 21.7600000000000051
 25.6800000000000068 25.6800000000000068 19.8000000000000043
 23.7200000000000060 23.7200000000000060 23.7200000000000060
 23.7200000000000060 25.6800000000000068 25.6800000000000068
 25.6800000000000068 23.7200000000000060 25.6800000000000068
 25.6800000000000068 25.6800000000000068 23.7200000000000060
 23.7200000000000060 23.7200000000000060 27.6400000000000077
 23.7200000000000060 25.6800000000000068 29.6000000000000085
 25.6800000000000068 23.7200000000000060 29.6000000000000085
 25.6800000000000068 25.6800000000000068 27.6400000000000077
 23.7200000000000060 23.7200000000000060 31.5600000000000023
 23.7200000000000060 27.6400000000000077 15.8800000000000043
 23.7200000000000060 29.6000000000000085 17.8400000000000034
 25.6800000000000068 27.6400000000000077 17.8400000000000034
 23.7200000000000060 27.6400000000000077 19.8000000000000043
 23.7200000000000060 29.6000000000000085 21.7600000000000051
 25.6800000000000068 27.6400000000000077 21.7600000000000051
 25.6800000000000068 29.6000000000000085 19.8000000000000043
 23.7200000000000060 27.6400000000000077 23.7200000000000060
 23.7200000000000060 29.6000000000000085 25.6800000000000068
 25.6800000000000068 27.6400000000000077 25.6800000000000068
 25.6800000000000068 29.6000000000000085 23.7200000000000060
 23.7200000000000060 27.6400000000000077 27.6400000000000077
 23.7200000000000060 31.5600000000000023 19.8000000000000043
 23.7200000000000060 33.5200000000000031 21.7600000000000051
 25.6800000000000068 31.5600000000000023 21.7600000000000051
 23.7200000000000060 31.5600000000000023 23.7200000000000060
 27.6400000000000077 13.9200000000000053 21.7600000000000051
 27.6400000000000077 17.8400000000000034 17.8400000000000034
 27.6400000000000077 15.8800000000000043 19.8000000000000043
 27.6400000000000077 17.8400000000000034 21.7600000000000051
 29.6000000000000085 15.8800000000000043 21.7600000000000051
 29.6000000000000085 17.8400000000000034 19.8000000000000043
 27.6400000000000077 15.8800000000000043 23.7200000000000060
 27.6400000000000077 17.8400000000000034 25.6800000000000068
 29.6000000000000085 17.8400000000000034 23.7200000000000060
 27.6400000000000077 21.7600000000000051 13.9200000000000053
 27.6400000000000077 19.8000000000000043 15.8800000000000043
 27.6400000000000077 21.7600000000000051 17.8400000000000034
 29.6000000000000085 19.8000000000000043 17.8400000000000034
 29.6000000000000085 21.7600000000000051 15.8800000000000043
 27.6400000000000077 19.8000000000000043 19.8000000000000043
 27.6400000000000077 21.7600000000000051 21.7600000000000051
 29.6000000000000085 19.8000000000000043 21.7600000000000051
 29.6000000000000085 21.7600000000000051 19.8000000000000043
 27.6400000000000077 19.8000000000000043 23.7200000000000060
 27.6400000000000077 21.7600000000000051 25.6800000000000068
 29.6000000000000085 19.8000000000000043 25.6800000000000068
 29.6000000000000085 21.7600000000000051 23.7200000000000060
 27.6400000000000077 19.8000000000000043 27.6400000000000077
 27.6400000000000077 21.7600000000000051 29.6000000000000085
 29.6000000000000085 21.7600000000000051 27.6400000000000077
 27.6400000000000077 23.7200000000000060 15.8800000000000043
 27.6400000000000077 25.6800000000000068 17.8400000000000034
 29.6000000000000085 23.7200000000000060 17.8400000000000034
 27.6400000000000077 23.7200000000000060 19.8000000000000043
 27.6400000000000077 25.6800000000000068 21.7600000000000051
 29.6000000000000085 23.7200000000000060 21.7600000000000051
 29.6000000000000085 25.6800000000000068 19.8000000000000043
 27.6400000000000077 23.7200000000000060 23.7200000000000060
 27.6400000000000077 25.6800000000000068 25.6800000000000068
 29.6000000000000085 23.7200000000000060 25.6800000000000068
 29.6000000000000085 25.6800000000000068 23.7200000000000060
 27.6400000000000077 23.7200000000000060 27.6400000000000077
 27.6400000000000077 27.6400000000000077 19.8000000000000043
 27.6400000000000077 29.6000000000000085 21.7600000000000051
 29.6000000000000085 27.6400000000000077 21.7600000000000051
 27.6400000000000077 27.6400000000000077 23.7200000000000060
 31.5600000000000023 17.8400000000000034 21.7600000000000051
 31.5600000000000023 21.7600000000000051 17.8400000000000034
 31.5600000000000023 19.8000000000000043 19.8000000000000043
 31.5600000000000023 21.7600000000000051 21.7600000000000051
 33.5200000000000031 19.8000000000000043 21.7600000000000051
 33.5200000000000031 21.7600000000000051 19.8000000000000043
 31.5600000000000023 19.8000000000000043 23.7200000000000060
 31.5600000000000023 21.7600000000000051 25.6800000000000068
 33.5200000000000031 21.7600000000000051 23.7200000000000060
 31.5600000000000023 23.7200000000000060 19.8000000000000043
 31.5600000000000023 25.6800000000000068 21.7600000000000051
 33.5200000000000031 23.7200000000000060 21.7600000000000051
 31.5600000000000023 23.7200000000000060 23.7200000000000060
