Au 
 1.0000000000000000
    46.6990913017724836    0.0000000000000000    0.0000000000000000
     0.0000000000000000   45.3923447617099782    0.0000000000000000
     0.0000000000000000    0.0000000000000000   51.7349523396522528
 Au 
 787
Cartesian
 23.3495456508862418 22.1278744362873070 10.0000000000000000
 23.3495456508862418 22.1278744362873070 12.8849956672411139
 23.3495456508862418 22.1278744362873070 15.7699913344822278
 23.3495456508862418 22.1278744362873070 18.6549870017233417
 23.3495456508862418 22.1278744362873070 21.5399826689644556
 23.3495456508862418 22.1278744362873070 24.4249783362055695
 23.3495456508862418 22.1278744362873070 27.3099740034466834
 23.3495456508862418 22.1278744362873070 30.1949696706877972
 23.3495456508862418 22.1278744362873070 33.0799653379289111
 23.3495456508862418 22.1278744362873070 35.9649610051700250
 23.3495456508862418 22.1278744362873070 38.8499566724111389
 23.3495456508862418 22.1278744362873070 41.7349523396522528
 25.7257408959877658 22.8999470735157686 11.4424978336205569
 25.7257408959877658 22.8999470735157686 14.3274935008616708
 25.7257408959877658 22.8999470735157686 17.2124891681027847
 25.7257408959877658 22.8999470735157686 20.0974848353438986
 25.7257408959877658 22.8999470735157686 22.9824805025850125
 25.7257408959877658 22.8999470735157686 25.8674761698261264
 25.7257408959877658 22.8999470735157686 28.7524718370672403
 25.7257408959877658 22.8999470735157686 31.6374675043083542
 25.7257408959877658 22.8999470735157686 34.5224631715494681
 25.7257408959877658 22.8999470735157686 37.4074588387905820
 25.7257408959877658 22.8999470735157686 40.2924545060316959
 23.3495456508862418 24.6263539739261503 11.4424978336205569
 23.3495456508862418 24.6263539739261503 14.3274935008616708
 23.3495456508862418 24.6263539739261503 17.2124891681027847
 23.3495456508862418 24.6263539739261503 20.0974848353438986
 23.3495456508862418 24.6263539739261503 22.9824805025850125
 23.3495456508862418 24.6263539739261503 25.8674761698261264
 23.3495456508862418 24.6263539739261503 28.7524718370672403
 23.3495456508862418 24.6263539739261503 31.6374675043083542
 23.3495456508862418 24.6263539739261503 34.5224631715494681
 23.3495456508862418 24.6263539739261503 37.4074588387905820
 23.3495456508862418 24.6263539739261503 40.2924545060316959
 20.9733504057847178 22.8999470735157686 11.4424978336205569
 20.9733504057847178 22.8999470735157686 14.3274935008616708
 20.9733504057847178 22.8999470735157686 17.2124891681027847
 20.9733504057847178 22.8999470735157686 20.0974848353438986
 20.9733504057847178 22.8999470735157686 22.9824805025850125
 20.9733504057847178 22.8999470735157686 25.8674761698261264
 20.9733504057847178 22.8999470735157686 28.7524718370672403
 20.9733504057847178 22.8999470735157686 31.6374675043083542
 20.9733504057847178 22.8999470735157686 34.5224631715494681
 20.9733504057847178 22.8999470735157686 37.4074588387905820
 20.9733504057847178 22.8999470735157686 40.2924545060316959
 21.8809762255076130 20.1065620302394237 11.4424978336205569
 21.8809762255076130 20.1065620302394237 14.3274935008616708
 21.8809762255076130 20.1065620302394237 17.2124891681027847
 21.8809762255076130 20.1065620302394237 20.0974848353438986
 21.8809762255076130 20.1065620302394237 22.9824805025850125
 21.8809762255076130 20.1065620302394237 25.8674761698261264
 21.8809762255076130 20.1065620302394237 28.7524718370672403
 21.8809762255076130 20.1065620302394237 31.6374675043083542
 21.8809762255076130 20.1065620302394237 34.5224631715494681
 21.8809762255076130 20.1065620302394237 37.4074588387905820
 21.8809762255076130 20.1065620302394237 40.2924545060316959
 24.8181150762648706 20.1065620302394237 11.4424978336205569
 24.8181150762648706 20.1065620302394237 14.3274935008616708
 24.8181150762648706 20.1065620302394237 17.2124891681027847
 24.8181150762648706 20.1065620302394237 20.0974848353438986
 24.8181150762648706 20.1065620302394237 22.9824805025850125
 24.8181150762648706 20.1065620302394237 25.8674761698261264
 24.8181150762648706 20.1065620302394237 28.7524718370672403
 24.8181150762648706 20.1065620302394237 31.6374675043083542
 24.8181150762648706 20.1065620302394237 34.5224631715494681
 24.8181150762648706 20.1065620302394237 37.4074588387905820
 24.8181150762648706 20.1065620302394237 40.2924545060316959
 28.1019361410892863 23.6720197107442303 12.8849956672411139
 28.1019361410892863 23.6720197107442303 15.7699913344822278
 28.1019361410892863 23.6720197107442303 18.6549870017233417
 28.1019361410892863 23.6720197107442303 21.5399826689644556
 28.1019361410892863 23.6720197107442303 24.4249783362055695
 28.1019361410892863 23.6720197107442303 27.3099740034466834
 28.1019361410892863 23.6720197107442303 30.1949696706877972
 28.1019361410892863 23.6720197107442303 33.0799653379289111
 28.1019361410892863 23.6720197107442303 35.9649610051700250
 28.1019361410892863 23.6720197107442303 38.8499566724111389
 25.7257408959877658 25.3984266111546120 12.8849956672411139
 25.7257408959877658 25.3984266111546120 15.7699913344822278
 25.7257408959877658 25.3984266111546120 18.6549870017233417
 25.7257408959877658 25.3984266111546120 21.5399826689644556
 25.7257408959877658 25.3984266111546120 24.4249783362055695
 25.7257408959877658 25.3984266111546120 27.3099740034466834
 25.7257408959877658 25.3984266111546120 30.1949696706877972
 25.7257408959877658 25.3984266111546120 33.0799653379289111
 25.7257408959877658 25.3984266111546120 35.9649610051700250
 25.7257408959877658 25.3984266111546120 38.8499566724111389
 23.3495456508862418 27.1248335115649901 12.8849956672411139
 23.3495456508862418 27.1248335115649901 15.7699913344822278
 23.3495456508862418 27.1248335115649901 18.6549870017233417
 23.3495456508862418 27.1248335115649901 21.5399826689644556
 23.3495456508862418 27.1248335115649901 24.4249783362055695
 23.3495456508862418 27.1248335115649901 27.3099740034466834
 23.3495456508862418 27.1248335115649901 30.1949696706877972
 23.3495456508862418 27.1248335115649901 33.0799653379289111
 23.3495456508862418 27.1248335115649901 35.9649610051700250
 23.3495456508862418 27.1248335115649901 38.8499566724111389
 20.9733504057847178 25.3984266111546120 12.8849956672411139
 20.9733504057847178 25.3984266111546120 15.7699913344822278
 20.9733504057847178 25.3984266111546120 18.6549870017233417
 20.9733504057847178 25.3984266111546120 21.5399826689644556
 20.9733504057847178 25.3984266111546120 24.4249783362055695
 20.9733504057847178 25.3984266111546120 27.3099740034466834
 20.9733504057847178 25.3984266111546120 30.1949696706877972
 20.9733504057847178 25.3984266111546120 33.0799653379289111
 20.9733504057847178 25.3984266111546120 35.9649610051700250
 20.9733504057847178 25.3984266111546120 38.8499566724111389
 18.5971551606831973 23.6720197107442338 12.8849956672411139
 18.5971551606831973 23.6720197107442338 15.7699913344822278
 18.5971551606831973 23.6720197107442338 18.6549870017233417
 18.5971551606831973 23.6720197107442338 21.5399826689644556
 18.5971551606831973 23.6720197107442338 24.4249783362055695
 18.5971551606831973 23.6720197107442338 27.3099740034466834
 18.5971551606831973 23.6720197107442338 30.1949696706877972
 18.5971551606831973 23.6720197107442338 33.0799653379289111
 18.5971551606831973 23.6720197107442338 35.9649610051700250
 18.5971551606831973 23.6720197107442338 38.8499566724111389
 19.5047809804060890 20.8786346674678853 12.8849956672411139
 19.5047809804060890 20.8786346674678853 15.7699913344822278
 19.5047809804060890 20.8786346674678853 18.6549870017233417
 19.5047809804060890 20.8786346674678853 21.5399826689644556
 19.5047809804060890 20.8786346674678853 24.4249783362055695
 19.5047809804060890 20.8786346674678853 27.3099740034466834
 19.5047809804060890 20.8786346674678853 30.1949696706877972
 19.5047809804060890 20.8786346674678853 33.0799653379289111
 19.5047809804060890 20.8786346674678853 35.9649610051700250
 19.5047809804060890 20.8786346674678853 38.8499566724111389
 20.4124068001289842 18.0852496241915404 12.8849956672411139
 20.4124068001289842 18.0852496241915404 15.7699913344822278
 20.4124068001289842 18.0852496241915404 18.6549870017233417
 20.4124068001289842 18.0852496241915404 21.5399826689644556
 20.4124068001289842 18.0852496241915404 24.4249783362055695
 20.4124068001289842 18.0852496241915404 27.3099740034466834
 20.4124068001289842 18.0852496241915404 30.1949696706877972
 20.4124068001289842 18.0852496241915404 33.0799653379289111
 20.4124068001289842 18.0852496241915404 35.9649610051700250
 20.4124068001289842 18.0852496241915404 38.8499566724111389
 23.3495456508862418 18.0852496241915404 12.8849956672411139
 23.3495456508862418 18.0852496241915404 15.7699913344822278
 23.3495456508862418 18.0852496241915404 18.6549870017233417
 23.3495456508862418 18.0852496241915404 21.5399826689644556
 23.3495456508862418 18.0852496241915404 24.4249783362055695
 23.3495456508862418 18.0852496241915404 27.3099740034466834
 23.3495456508862418 18.0852496241915404 30.1949696706877972
 23.3495456508862418 18.0852496241915404 33.0799653379289111
 23.3495456508862418 18.0852496241915404 35.9649610051700250
 23.3495456508862418 18.0852496241915404 38.8499566724111389
 26.2866845016434958 18.0852496241915404 12.8849956672411139
 26.2866845016434958 18.0852496241915404 15.7699913344822278
 26.2866845016434958 18.0852496241915404 18.6549870017233417
 26.2866845016434958 18.0852496241915404 21.5399826689644556
 26.2866845016434958 18.0852496241915404 24.4249783362055695
 26.2866845016434958 18.0852496241915404 27.3099740034466834
 26.2866845016434958 18.0852496241915404 30.1949696706877972
 26.2866845016434958 18.0852496241915404 33.0799653379289111
 26.2866845016434958 18.0852496241915404 35.9649610051700250
 26.2866845016434958 18.0852496241915404 38.8499566724111389
 27.1943103213663910 20.8786346674678853 12.8849956672411139
 27.1943103213663910 20.8786346674678853 15.7699913344822278
 27.1943103213663910 20.8786346674678853 18.6549870017233417
 27.1943103213663910 20.8786346674678853 21.5399826689644556
 27.1943103213663910 20.8786346674678853 24.4249783362055695
 27.1943103213663910 20.8786346674678853 27.3099740034466834
 27.1943103213663910 20.8786346674678853 30.1949696706877972
 27.1943103213663910 20.8786346674678853 33.0799653379289111
 27.1943103213663910 20.8786346674678853 35.9649610051700250
 27.1943103213663910 20.8786346674678853 38.8499566724111389
 30.4781313861908103 24.4440923479726955 14.3274935008616708
 30.4781313861908103 24.4440923479726955 17.2124891681027847
 30.4781313861908103 24.4440923479726955 20.0974848353438986
 30.4781313861908103 24.4440923479726955 22.9824805025850125
 30.4781313861908103 24.4440923479726955 25.8674761698261264
 30.4781313861908103 24.4440923479726955 28.7524718370672403
 30.4781313861908103 24.4440923479726955 31.6374675043083542
 30.4781313861908103 24.4440923479726955 34.5224631715494681
 30.4781313861908103 24.4440923479726955 37.4074588387905820
 28.1019361410892863 26.1704992483830736 14.3274935008616708
 28.1019361410892863 26.1704992483830736 17.2124891681027847
 28.1019361410892863 26.1704992483830736 20.0974848353438986
 28.1019361410892863 26.1704992483830736 22.9824805025850125
 28.1019361410892863 26.1704992483830736 25.8674761698261264
 28.1019361410892863 26.1704992483830736 28.7524718370672403
 28.1019361410892863 26.1704992483830736 31.6374675043083542
 28.1019361410892863 26.1704992483830736 34.5224631715494681
 28.1019361410892863 26.1704992483830736 37.4074588387905820
 25.7257408959877658 27.8969061487934518 14.3274935008616708
 25.7257408959877658 27.8969061487934518 17.2124891681027847
 25.7257408959877658 27.8969061487934518 20.0974848353438986
 25.7257408959877658 27.8969061487934518 22.9824805025850125
 25.7257408959877658 27.8969061487934518 25.8674761698261264
 25.7257408959877658 27.8969061487934518 28.7524718370672403
 25.7257408959877658 27.8969061487934518 31.6374675043083542
 25.7257408959877658 27.8969061487934518 34.5224631715494681
 25.7257408959877658 27.8969061487934518 37.4074588387905820
 23.3495456508862418 29.6233130492038299 14.3274935008616708
 23.3495456508862418 29.6233130492038299 17.2124891681027847
 23.3495456508862418 29.6233130492038299 20.0974848353438986
 23.3495456508862418 29.6233130492038299 22.9824805025850125
 23.3495456508862418 29.6233130492038299 25.8674761698261264
 23.3495456508862418 29.6233130492038299 28.7524718370672403
 23.3495456508862418 29.6233130492038299 31.6374675043083542
 23.3495456508862418 29.6233130492038299 34.5224631715494681
 23.3495456508862418 29.6233130492038299 37.4074588387905820
 20.9733504057847213 27.8969061487934553 14.3274935008616708
 20.9733504057847213 27.8969061487934553 17.2124891681027847
 20.9733504057847213 27.8969061487934553 20.0974848353438986
 20.9733504057847213 27.8969061487934553 22.9824805025850125
 20.9733504057847213 27.8969061487934553 25.8674761698261264
 20.9733504057847213 27.8969061487934553 28.7524718370672403
 20.9733504057847213 27.8969061487934553 31.6374675043083542
 20.9733504057847213 27.8969061487934553 34.5224631715494681
 20.9733504057847213 27.8969061487934553 37.4074588387905820
 18.5971551606831973 26.1704992483830736 14.3274935008616708
 18.5971551606831973 26.1704992483830736 17.2124891681027847
 18.5971551606831973 26.1704992483830736 20.0974848353438986
 18.5971551606831973 26.1704992483830736 22.9824805025850125
 18.5971551606831973 26.1704992483830736 25.8674761698261264
 18.5971551606831973 26.1704992483830736 28.7524718370672403
 18.5971551606831973 26.1704992483830736 31.6374675043083542
 18.5971551606831973 26.1704992483830736 34.5224631715494681
 18.5971551606831973 26.1704992483830736 37.4074588387905820
 16.2209599155816733 24.4440923479726955 14.3274935008616708
 16.2209599155816733 24.4440923479726955 17.2124891681027847
 16.2209599155816733 24.4440923479726955 20.0974848353438986
 16.2209599155816733 24.4440923479726955 22.9824805025850125
 16.2209599155816733 24.4440923479726955 25.8674761698261264
 16.2209599155816733 24.4440923479726955 28.7524718370672403
 16.2209599155816733 24.4440923479726955 31.6374675043083542
 16.2209599155816733 24.4440923479726955 34.5224631715494681
 16.2209599155816733 24.4440923479726955 37.4074588387905820
 17.1285857353045685 21.6507073046963505 14.3274935008616708
 17.1285857353045685 21.6507073046963505 17.2124891681027847
 17.1285857353045685 21.6507073046963505 20.0974848353438986
 17.1285857353045685 21.6507073046963505 22.9824805025850125
 17.1285857353045685 21.6507073046963505 25.8674761698261264
 17.1285857353045685 21.6507073046963505 28.7524718370672403
 17.1285857353045685 21.6507073046963505 31.6374675043083542
 17.1285857353045685 21.6507073046963505 34.5224631715494681
 17.1285857353045685 21.6507073046963505 37.4074588387905820
 18.0362115550274638 18.8573222614200020 14.3274935008616708
 18.0362115550274638 18.8573222614200020 17.2124891681027847
 18.0362115550274638 18.8573222614200020 20.0974848353438986
 18.0362115550274638 18.8573222614200020 22.9824805025850125
 18.0362115550274638 18.8573222614200020 25.8674761698261264
 18.0362115550274638 18.8573222614200020 28.7524718370672403
 18.0362115550274638 18.8573222614200020 31.6374675043083542
 18.0362115550274638 18.8573222614200020 34.5224631715494681
 18.0362115550274638 18.8573222614200020 37.4074588387905820
 18.9438373747503590 16.0639372181436570 14.3274935008616708
 18.9438373747503590 16.0639372181436570 17.2124891681027847
 18.9438373747503590 16.0639372181436570 20.0974848353438986
 18.9438373747503590 16.0639372181436570 22.9824805025850125
 18.9438373747503590 16.0639372181436570 25.8674761698261264
 18.9438373747503590 16.0639372181436570 28.7524718370672403
 18.9438373747503590 16.0639372181436570 31.6374675043083542
 18.9438373747503590 16.0639372181436570 34.5224631715494681
 18.9438373747503590 16.0639372181436570 37.4074588387905820
 21.8809762255076130 16.0639372181436570 14.3274935008616708
 21.8809762255076130 16.0639372181436570 17.2124891681027847
 21.8809762255076130 16.0639372181436570 20.0974848353438986
 21.8809762255076130 16.0639372181436570 22.9824805025850125
 21.8809762255076130 16.0639372181436570 25.8674761698261264
 21.8809762255076130 16.0639372181436570 28.7524718370672403
 21.8809762255076130 16.0639372181436570 31.6374675043083542
 21.8809762255076130 16.0639372181436570 34.5224631715494681
 21.8809762255076130 16.0639372181436570 37.4074588387905820
 24.8181150762648670 16.0639372181436570 14.3274935008616708
 24.8181150762648670 16.0639372181436570 17.2124891681027847
 24.8181150762648670 16.0639372181436570 20.0974848353438986
 24.8181150762648670 16.0639372181436570 22.9824805025850125
 24.8181150762648670 16.0639372181436570 25.8674761698261264
 24.8181150762648670 16.0639372181436570 28.7524718370672403
 24.8181150762648670 16.0639372181436570 31.6374675043083542
 24.8181150762648670 16.0639372181436570 34.5224631715494681
 24.8181150762648670 16.0639372181436570 37.4074588387905820
 27.7552539270221246 16.0639372181436535 14.3274935008616708
 27.7552539270221246 16.0639372181436535 17.2124891681027847
 27.7552539270221246 16.0639372181436535 20.0974848353438986
 27.7552539270221246 16.0639372181436535 22.9824805025850125
 27.7552539270221246 16.0639372181436535 25.8674761698261264
 27.7552539270221246 16.0639372181436535 28.7524718370672403
 27.7552539270221246 16.0639372181436535 31.6374675043083542
 27.7552539270221246 16.0639372181436535 34.5224631715494681
 27.7552539270221246 16.0639372181436535 37.4074588387905820
 28.6628797467450198 18.8573222614200020 14.3274935008616708
 28.6628797467450198 18.8573222614200020 17.2124891681027847
 28.6628797467450198 18.8573222614200020 20.0974848353438986
 28.6628797467450198 18.8573222614200020 22.9824805025850125
 28.6628797467450198 18.8573222614200020 25.8674761698261264
 28.6628797467450198 18.8573222614200020 28.7524718370672403
 28.6628797467450198 18.8573222614200020 31.6374675043083542
 28.6628797467450198 18.8573222614200020 34.5224631715494681
 28.6628797467450198 18.8573222614200020 37.4074588387905820
 29.5705055664679151 21.6507073046963470 14.3274935008616708
 29.5705055664679151 21.6507073046963470 17.2124891681027847
 29.5705055664679151 21.6507073046963470 20.0974848353438986
 29.5705055664679151 21.6507073046963470 22.9824805025850125
 29.5705055664679151 21.6507073046963470 25.8674761698261264
 29.5705055664679151 21.6507073046963470 28.7524718370672403
 29.5705055664679151 21.6507073046963470 31.6374675043083542
 29.5705055664679151 21.6507073046963470 34.5224631715494681
 29.5705055664679151 21.6507073046963470 37.4074588387905820
 32.8543266312923308 25.2161649852011571 15.7699913344822278
 32.8543266312923308 25.2161649852011571 18.6549870017233417
 32.8543266312923308 25.2161649852011571 21.5399826689644556
 32.8543266312923308 25.2161649852011571 24.4249783362055695
 32.8543266312923308 25.2161649852011571 27.3099740034466834
 32.8543266312923308 25.2161649852011571 30.1949696706877972
 32.8543266312923308 25.2161649852011571 33.0799653379289111
 32.8543266312923308 25.2161649852011571 35.9649610051700250
 30.4781313861908103 26.9425718856115353 15.7699913344822278
 30.4781313861908103 26.9425718856115353 18.6549870017233417
 30.4781313861908103 26.9425718856115353 21.5399826689644556
 30.4781313861908103 26.9425718856115353 24.4249783362055695
 30.4781313861908103 26.9425718856115353 27.3099740034466834
 30.4781313861908103 26.9425718856115353 30.1949696706877972
 30.4781313861908103 26.9425718856115353 33.0799653379289111
 30.4781313861908103 26.9425718856115353 35.9649610051700250
 28.1019361410892863 28.6689787860219170 15.7699913344822278
 28.1019361410892863 28.6689787860219170 18.6549870017233417
 28.1019361410892863 28.6689787860219170 21.5399826689644556
 28.1019361410892863 28.6689787860219170 24.4249783362055695
 28.1019361410892863 28.6689787860219170 27.3099740034466834
 28.1019361410892863 28.6689787860219170 30.1949696706877972
 28.1019361410892863 28.6689787860219170 33.0799653379289111
 28.1019361410892863 28.6689787860219170 35.9649610051700250
 25.7257408959877658 30.3953856864322951 15.7699913344822278
 25.7257408959877658 30.3953856864322951 18.6549870017233417
 25.7257408959877658 30.3953856864322951 21.5399826689644556
 25.7257408959877658 30.3953856864322951 24.4249783362055695
 25.7257408959877658 30.3953856864322951 27.3099740034466834
 25.7257408959877658 30.3953856864322951 30.1949696706877972
 25.7257408959877658 30.3953856864322951 33.0799653379289111
 25.7257408959877658 30.3953856864322951 35.9649610051700250
 23.3495456508862418 32.1217925868426732 15.7699913344822278
 23.3495456508862418 32.1217925868426732 18.6549870017233417
 23.3495456508862418 32.1217925868426732 21.5399826689644556
 23.3495456508862418 32.1217925868426732 24.4249783362055695
 23.3495456508862418 32.1217925868426732 27.3099740034466834
 23.3495456508862418 32.1217925868426732 30.1949696706877972
 23.3495456508862418 32.1217925868426732 33.0799653379289111
 23.3495456508862418 32.1217925868426732 35.9649610051700250
 20.9733504057847213 30.3953856864322951 15.7699913344822278
 20.9733504057847213 30.3953856864322951 18.6549870017233417
 20.9733504057847213 30.3953856864322951 21.5399826689644556
 20.9733504057847213 30.3953856864322951 24.4249783362055695
 20.9733504057847213 30.3953856864322951 27.3099740034466834
 20.9733504057847213 30.3953856864322951 30.1949696706877972
 20.9733504057847213 30.3953856864322951 33.0799653379289111
 20.9733504057847213 30.3953856864322951 35.9649610051700250
 18.5971551606831973 28.6689787860219170 15.7699913344822278
 18.5971551606831973 28.6689787860219170 18.6549870017233417
 18.5971551606831973 28.6689787860219170 21.5399826689644556
 18.5971551606831973 28.6689787860219170 24.4249783362055695
 18.5971551606831973 28.6689787860219170 27.3099740034466834
 18.5971551606831973 28.6689787860219170 30.1949696706877972
 18.5971551606831973 28.6689787860219170 33.0799653379289111
 18.5971551606831973 28.6689787860219170 35.9649610051700250
 16.2209599155816733 26.9425718856115388 15.7699913344822278
 16.2209599155816733 26.9425718856115388 18.6549870017233417
 16.2209599155816733 26.9425718856115388 21.5399826689644556
 16.2209599155816733 26.9425718856115388 24.4249783362055695
 16.2209599155816733 26.9425718856115388 27.3099740034466834
 16.2209599155816733 26.9425718856115388 30.1949696706877972
 16.2209599155816733 26.9425718856115388 33.0799653379289111
 16.2209599155816733 26.9425718856115388 35.9649610051700250
 13.8447646704801510 25.2161649852011607 15.7699913344822278
 13.8447646704801510 25.2161649852011607 18.6549870017233417
 13.8447646704801510 25.2161649852011607 21.5399826689644556
 13.8447646704801510 25.2161649852011607 24.4249783362055695
 13.8447646704801510 25.2161649852011607 27.3099740034466834
 13.8447646704801510 25.2161649852011607 30.1949696706877972
 13.8447646704801510 25.2161649852011607 33.0799653379289111
 13.8447646704801510 25.2161649852011607 35.9649610051700250
 14.7523904902030445 22.4227799419248122 15.7699913344822278
 14.7523904902030445 22.4227799419248122 18.6549870017233417
 14.7523904902030445 22.4227799419248122 21.5399826689644556
 14.7523904902030445 22.4227799419248122 24.4249783362055695
 14.7523904902030445 22.4227799419248122 27.3099740034466834
 14.7523904902030445 22.4227799419248122 30.1949696706877972
 14.7523904902030445 22.4227799419248122 33.0799653379289111
 14.7523904902030445 22.4227799419248122 35.9649610051700250
 15.6600163099259397 19.6293948986484672 15.7699913344822278
 15.6600163099259397 19.6293948986484672 18.6549870017233417
 15.6600163099259397 19.6293948986484672 21.5399826689644556
 15.6600163099259397 19.6293948986484672 24.4249783362055695
 15.6600163099259397 19.6293948986484672 27.3099740034466834
 15.6600163099259397 19.6293948986484672 30.1949696706877972
 15.6600163099259397 19.6293948986484672 33.0799653379289111
 15.6600163099259397 19.6293948986484672 35.9649610051700250
 16.5676421296488350 16.8360098553721187 15.7699913344822278
 16.5676421296488350 16.8360098553721187 18.6549870017233417
 16.5676421296488350 16.8360098553721187 21.5399826689644556
 16.5676421296488350 16.8360098553721187 24.4249783362055695
 16.5676421296488350 16.8360098553721187 27.3099740034466834
 16.5676421296488350 16.8360098553721187 30.1949696706877972
 16.5676421296488350 16.8360098553721187 33.0799653379289111
 16.5676421296488350 16.8360098553721187 35.9649610051700250
 17.4752679493717267 14.0426248120957720 15.7699913344822278
 17.4752679493717267 14.0426248120957720 18.6549870017233417
 17.4752679493717267 14.0426248120957720 21.5399826689644556
 17.4752679493717267 14.0426248120957720 24.4249783362055695
 17.4752679493717267 14.0426248120957720 27.3099740034466834
 17.4752679493717267 14.0426248120957720 30.1949696706877972
 17.4752679493717267 14.0426248120957720 33.0799653379289111
 17.4752679493717267 14.0426248120957720 35.9649610051700250
 20.4124068001289842 14.0426248120957702 15.7699913344822278
 20.4124068001289842 14.0426248120957702 18.6549870017233417
 20.4124068001289842 14.0426248120957702 21.5399826689644556
 20.4124068001289842 14.0426248120957702 24.4249783362055695
 20.4124068001289842 14.0426248120957702 27.3099740034466834
 20.4124068001289842 14.0426248120957702 30.1949696706877972
 20.4124068001289842 14.0426248120957702 33.0799653379289111
 20.4124068001289842 14.0426248120957702 35.9649610051700250
 23.3495456508862418 14.0426248120957702 15.7699913344822278
 23.3495456508862418 14.0426248120957702 18.6549870017233417
 23.3495456508862418 14.0426248120957702 21.5399826689644556
 23.3495456508862418 14.0426248120957702 24.4249783362055695
 23.3495456508862418 14.0426248120957702 27.3099740034466834
 23.3495456508862418 14.0426248120957702 30.1949696706877972
 23.3495456508862418 14.0426248120957702 33.0799653379289111
 23.3495456508862418 14.0426248120957702 35.9649610051700250
 26.2866845016434958 14.0426248120957702 15.7699913344822278
 26.2866845016434958 14.0426248120957702 18.6549870017233417
 26.2866845016434958 14.0426248120957702 21.5399826689644556
 26.2866845016434958 14.0426248120957702 24.4249783362055695
 26.2866845016434958 14.0426248120957702 27.3099740034466834
 26.2866845016434958 14.0426248120957702 30.1949696706877972
 26.2866845016434958 14.0426248120957702 33.0799653379289111
 26.2866845016434958 14.0426248120957702 35.9649610051700250
 29.2238233524007534 14.0426248120957702 15.7699913344822278
 29.2238233524007534 14.0426248120957702 18.6549870017233417
 29.2238233524007534 14.0426248120957702 21.5399826689644556
 29.2238233524007534 14.0426248120957702 24.4249783362055695
 29.2238233524007534 14.0426248120957702 27.3099740034466834
 29.2238233524007534 14.0426248120957702 30.1949696706877972
 29.2238233524007534 14.0426248120957702 33.0799653379289111
 29.2238233524007534 14.0426248120957702 35.9649610051700250
 30.1314491721236450 16.8360098553721187 15.7699913344822278
 30.1314491721236450 16.8360098553721187 18.6549870017233417
 30.1314491721236450 16.8360098553721187 21.5399826689644556
 30.1314491721236450 16.8360098553721187 24.4249783362055695
 30.1314491721236450 16.8360098553721187 27.3099740034466834
 30.1314491721236450 16.8360098553721187 30.1949696706877972
 30.1314491721236450 16.8360098553721187 33.0799653379289111
 30.1314491721236450 16.8360098553721187 35.9649610051700250
 31.0390749918465403 19.6293948986484637 15.7699913344822278
 31.0390749918465403 19.6293948986484637 18.6549870017233417
 31.0390749918465403 19.6293948986484637 21.5399826689644556
 31.0390749918465403 19.6293948986484637 24.4249783362055695
 31.0390749918465403 19.6293948986484637 27.3099740034466834
 31.0390749918465403 19.6293948986484637 30.1949696706877972
 31.0390749918465403 19.6293948986484637 33.0799653379289111
 31.0390749918465403 19.6293948986484637 35.9649610051700250
 31.9467008115694355 22.4227799419248086 15.7699913344822278
 31.9467008115694355 22.4227799419248086 18.6549870017233417
 31.9467008115694355 22.4227799419248086 21.5399826689644556
 31.9467008115694355 22.4227799419248086 24.4249783362055695
 31.9467008115694355 22.4227799419248086 27.3099740034466834
 31.9467008115694355 22.4227799419248086 30.1949696706877972
 31.9467008115694355 22.4227799419248086 33.0799653379289111
 31.9467008115694355 22.4227799419248086 35.9649610051700250
 35.2305218763938512 25.9882376224296188 17.2124891681027847
 35.2305218763938512 25.9882376224296188 20.0974848353438986
 35.2305218763938512 25.9882376224296188 22.9824805025850125
 35.2305218763938512 25.9882376224296188 25.8674761698261264
 35.2305218763938512 25.9882376224296188 28.7524718370672403
 35.2305218763938512 25.9882376224296188 31.6374675043083542
 35.2305218763938512 25.9882376224296188 34.5224631715494681
 32.8543266312923308 27.7146445228399969 17.2124891681027847
 32.8543266312923308 27.7146445228399969 20.0974848353438986
 32.8543266312923308 27.7146445228399969 22.9824805025850125
 32.8543266312923308 27.7146445228399969 25.8674761698261264
 32.8543266312923308 27.7146445228399969 28.7524718370672403
 32.8543266312923308 27.7146445228399969 31.6374675043083542
 32.8543266312923308 27.7146445228399969 34.5224631715494681
 30.4781313861908103 29.4410514232503786 17.2124891681027847
 30.4781313861908103 29.4410514232503786 20.0974848353438986
 30.4781313861908103 29.4410514232503786 22.9824805025850125
 30.4781313861908103 29.4410514232503786 25.8674761698261264
 30.4781313861908103 29.4410514232503786 28.7524718370672403
 30.4781313861908103 29.4410514232503786 31.6374675043083542
 30.4781313861908103 29.4410514232503786 34.5224631715494681
 28.1019361410892898 31.1674583236607567 17.2124891681027847
 28.1019361410892898 31.1674583236607567 20.0974848353438986
 28.1019361410892898 31.1674583236607567 22.9824805025850125
 28.1019361410892898 31.1674583236607567 25.8674761698261264