Au 
 1.0000000000000000
    39.6329911714462924    0.0000000000000000    0.0000000000000000
     0.0000000000000000   39.6329911714462924    0.0000000000000000
     0.0000000000000000    0.0000000000000000   39.6329911714462924
 Au 
 309
Cartesian
 19.8164955857231462 19.8164955857231462 19.8164955857231462
 22.2706194821539327 19.8164955857231462 18.2997636051255945
 22.2706194821539327 19.8164955857231462 21.3332275663206978
 17.3623716892923596 19.8164955857231462 18.2997636051255945
 17.3623716892923596 19.8164955857231462 21.3332275663206978
 18.2997636051255945 22.2706194821539327 19.8164955857231462
 21.3332275663206978 22.2706194821539327 19.8164955857231462
 18.2997636051255945 17.3623716892923596 19.8164955857231462
 21.3332275663206978 17.3623716892923596 19.8164955857231462
 19.8164955857231462 18.2997636051255945 22.2706194821539327
 19.8164955857231462 21.3332275663206978 22.2706194821539327
 19.8164955857231462 18.2997636051255945 17.3623716892923596
 19.8164955857231462 21.3332275663206978 17.3623716892923596
 24.7247433785847193 19.8164955857231462 16.7830316245280429
 24.7247433785847193 19.8164955857231462 19.8164955857231462
 24.7247433785847193 19.8164955857231462 22.8499595469182495
 14.9082477928615731 19.8164955857231462 16.7830316245280429
 14.9082477928615731 19.8164955857231462 19.8164955857231462
 14.9082477928615731 19.8164955857231462 22.8499595469182495
 16.7830316245280429 24.7247433785847193 19.8164955857231462
 19.8164955857231462 24.7247433785847193 19.8164955857231462
 22.8499595469182495 24.7247433785847193 19.8164955857231462
 16.7830316245280429 14.9082477928615731 19.8164955857231462
 19.8164955857231462 14.9082477928615731 19.8164955857231462
 22.8499595469182495 14.9082477928615731 19.8164955857231462
 19.8164955857231462 16.7830316245280429 24.7247433785847193
 19.8164955857231462 19.8164955857231462 24.7247433785847193
 19.8164955857231462 22.8499595469182495 24.7247433785847193
 19.8164955857231462 16.7830316245280429 14.9082477928615731
 19.8164955857231462 19.8164955857231462 14.9082477928615731
 19.8164955857231462 22.8499595469182495 14.9082477928615731
 22.2706194821539327 18.2997636051255945 23.7873514627514844
 22.2706194821539327 21.3332275663206978 23.7873514627514844
 22.2706194821539327 18.2997636051255945 15.8456397086948080
 22.2706194821539327 21.3332275663206978 15.8456397086948080
 17.3623716892923596 18.2997636051255945 23.7873514627514844
 17.3623716892923596 21.3332275663206978 23.7873514627514844
 17.3623716892923596 18.2997636051255945 15.8456397086948080
 17.3623716892923596 21.3332275663206978 15.8456397086948080
 23.7873514627514844 22.2706194821539327 18.2997636051255945
 23.7873514627514844 22.2706194821539327 21.3332275663206978
 15.8456397086948080 22.2706194821539327 18.2997636051255945
 15.8456397086948080 22.2706194821539327 21.3332275663206978
 23.7873514627514844 17.3623716892923596 18.2997636051255945
 23.7873514627514844 17.3623716892923596 21.3332275663206978
 15.8456397086948080 17.3623716892923596 18.2997636051255945
 15.8456397086948080 17.3623716892923596 21.3332275663206978
 18.2997636051255945 23.7873514627514844 22.2706194821539327
 21.3332275663206978 23.7873514627514844 22.2706194821539327
 18.2997636051255945 15.8456397086948080 22.2706194821539327
 21.3332275663206978 15.8456397086948080 22.2706194821539327
 18.2997636051255945 23.7873514627514844 17.3623716892923596
 21.3332275663206978 23.7873514627514844 17.3623716892923596
 18.2997636051255945 15.8456397086948080 17.3623716892923596
 21.3332275663206978 15.8456397086948080 17.3623716892923596
 27.1788672750155058 19.8164955857231462 15.2662996439304877
 27.1788672750155058 19.8164955857231462 18.2997636051255945
 27.1788672750155058 19.8164955857231462 21.3332275663206978
 27.1788672750155058 19.8164955857231462 24.3666915275158047
 12.4541238964307865 19.8164955857231462 15.2662996439304877
 12.4541238964307865 19.8164955857231462 18.2997636051255945
 12.4541238964307865 19.8164955857231462 21.3332275663206978
 12.4541238964307865 19.8164955857231462 24.3666915275158047
 15.2662996439304877 27.1788672750155058 19.8164955857231462
 18.2997636051255945 27.1788672750155058 19.8164955857231462
 21.3332275663206978 27.1788672750155058 19.8164955857231462
 24.3666915275158047 27.1788672750155058 19.8164955857231462
 15.2662996439304877 12.4541238964307865 19.8164955857231462
 18.2997636051255945 12.4541238964307865 19.8164955857231462
 21.3332275663206978 12.4541238964307865 19.8164955857231462
 24.3666915275158047 12.4541238964307865 19.8164955857231462
 19.8164955857231462 15.2662996439304877 27.1788672750155058
 19.8164955857231462 18.2997636051255945 27.1788672750155058
 19.8164955857231462 21.3332275663206978 27.1788672750155058
 19.8164955857231462 24.3666915275158047 27.1788672750155058
 19.8164955857231462 15.2662996439304877 12.4541238964307865
 19.8164955857231462 18.2997636051255945 12.4541238964307865
 19.8164955857231462 21.3332275663206978 12.4541238964307865
 19.8164955857231462 24.3666915275158047 12.4541238964307865
 24.7247433785847193 18.2997636051255945 25.3040834433490360
 22.2706194821539327 16.7830316245280429 26.2414753591822709
 24.7247433785847193 21.3332275663206978 25.3040834433490360
 22.2706194821539327 19.8164955857231462 26.2414753591822709
 22.2706194821539327 22.8499595469182495 26.2414753591822709
 24.7247433785847193 18.2997636051255945 14.3289077280972545
 22.2706194821539327 16.7830316245280429 13.3915158122640214
 24.7247433785847193 21.3332275663206978 14.3289077280972545
 22.2706194821539327 19.8164955857231462 13.3915158122640214
 22.2706194821539327 22.8499595469182495 13.3915158122640214
 14.9082477928615731 18.2997636051255945 25.3040834433490360
 17.3623716892923596 16.7830316245280429 26.2414753591822709
 14.9082477928615731 21.3332275663206978 25.3040834433490360
 17.3623716892923596 19.8164955857231462 26.2414753591822709
 17.3623716892923596 22.8499595469182495 26.2414753591822709
 14.9082477928615731 18.2997636051255945 14.3289077280972545
 17.3623716892923596 16.7830316245280429 13.3915158122640214
 14.9082477928615731 21.3332275663206978 14.3289077280972545
 17.3623716892923596 19.8164955857231462 13.3915158122640214
 17.3623716892923596 22.8499595469182495 13.3915158122640214
 25.3040834433490360 24.7247433785847193 18.2997636051255945
 26.2414753591822709 22.2706194821539327 16.7830316245280429
 25.3040834433490360 24.7247433785847193 21.3332275663206978
 26.2414753591822709 22.2706194821539327 19.8164955857231462
 26.2414753591822709 22.2706194821539327 22.8499595469182495
 14.3289077280972545 24.7247433785847193 18.2997636051255945
 13.3915158122640214 22.2706194821539327 16.7830316245280429
 14.3289077280972545 24.7247433785847193 21.3332275663206978
 13.3915158122640214 22.2706194821539327 19.8164955857231462
 13.3915158122640214 22.2706194821539327 22.8499595469182495
 25.3040834433490360 14.9082477928615731 18.2997636051255945
 26.2414753591822709 17.3623716892923596 16.7830316245280429
 25.3040834433490360 14.9082477928615731 21.3332275663206978
 26.2414753591822709 17.3623716892923596 19.8164955857231462
 26.2414753591822709 17.3623716892923596 22.8499595469182495
 14.3289077280972545 14.9082477928615731 18.2997636051255945
 13.3915158122640214 17.3623716892923596 16.7830316245280429
 14.3289077280972545 14.9082477928615731 21.3332275663206978
 13.3915158122640214 17.3623716892923596 19.8164955857231462
 13.3915158122640214 17.3623716892923596 22.8499595469182495
 18.2997636051255945 25.3040834433490360 24.7247433785847193
 16.7830316245280429 26.2414753591822709 22.2706194821539327
 21.3332275663206978 25.3040834433490360 24.7247433785847193
 19.8164955857231462 26.2414753591822709 22.2706194821539327
 22.8499595469182495 26.2414753591822709 22.2706194821539327
 18.2997636051255945 14.3289077280972545 24.7247433785847193
 16.7830316245280429 13.3915158122640214 22.2706194821539327
 21.3332275663206978 14.3289077280972545 24.7247433785847193
 19.8164955857231462 13.3915158122640214 22.2706194821539327
 22.8499595469182495 13.3915158122640214 22.2706194821539327
 18.2997636051255945 25.3040834433490360 14.9082477928615731
 16.7830316245280429 26.2414753591822709 17.3623716892923596
 21.3332275663206978 25.3040834433490360 14.9082477928615731
 19.8164955857231462 26.2414753591822709 17.3623716892923596
 22.8499595469182495 26.2414753591822709 17.3623716892923596
 18.2997636051255945 14.3289077280972545 14.9082477928615731
 16.7830316245280429 13.3915158122640214 17.3623716892923596
 21.3332275663206978 14.3289077280972545 14.9082477928615731
 19.8164955857231462 13.3915158122640214 17.3623716892923596
 22.8499595469182495 13.3915158122640214 17.3623716892923596
 23.7873514627514844 15.8456397086948080 23.7873514627514844
 23.7873514627514844 23.7873514627514844 23.7873514627514844
 23.7873514627514844 15.8456397086948080 15.8456397086948080
 23.7873514627514844 23.7873514627514844 15.8456397086948080
 15.8456397086948080 15.8456397086948080 23.7873514627514844
 15.8456397086948080 23.7873514627514844 23.7873514627514844
 15.8456397086948080 15.8456397086948080 15.8456397086948080
 15.8456397086948080 23.7873514627514844 15.8456397086948080
 29.6329911714462924 19.8164955857231462 13.7495676633329360
 29.6329911714462924 19.8164955857231462 16.7830316245280429
 29.6329911714462924 19.8164955857231462 19.8164955857231462
 29.6329911714462924 19.8164955857231462 22.8499595469182495
 29.6329911714462924 19.8164955857231462 25.8834235081133563
 10.0000000000000018 19.8164955857231462 13.7495676633329360
 10.0000000000000018 19.8164955857231462 16.7830316245280429
 10.0000000000000018 19.8164955857231462 19.8164955857231462
 10.0000000000000018 19.8164955857231462 22.8499595469182495
 10.0000000000000018 19.8164955857231462 25.8834235081133563
 13.7495676633329360 29.6329911714462924 19.8164955857231462
 16.7830316245280429 29.6329911714462924 19.8164955857231462
 19.8164955857231462 29.6329911714462924 19.8164955857231462
 22.8499595469182495 29.6329911714462924 19.8164955857231462
 25.8834235081133563 29.6329911714462924 19.8164955857231462
 13.7495676633329360 10.0000000000000018 19.8164955857231462
 16.7830316245280429 10.0000000000000018 19.8164955857231462
 19.8164955857231462 10.0000000000000018 19.8164955857231462
 22.8499595469182495 10.0000000000000018 19.8164955857231462
 25.8834235081133563 10.0000000000000018 19.8164955857231462
 19.8164955857231462 13.7495676633329360 29.6329911714462924
 19.8164955857231462 16.7830316245280429 29.6329911714462924
 19.8164955857231462 19.8164955857231462 29.6329911714462924
 19.8164955857231462 22.8499595469182495 29.6329911714462924
 19.8164955857231462 25.8834235081133563 29.6329911714462924
 19.8164955857231462 13.7495676633329360 10.0000000000000018
 19.8164955857231462 16.7830316245280429 10.0000000000000018
 19.8164955857231462 19.8164955857231462 10.0000000000000018
 19.8164955857231462 22.8499595469182495 10.0000000000000018
 19.8164955857231462 25.8834235081133563 10.0000000000000018
 27.1788672750155058 18.2997636051255945 26.8208154239465912
 24.7247433785847193 16.7830316245280429 27.7582073397798226
 22.2706194821539327 15.2662996439304877 28.6955992556130575
 27.1788672750155058 21.3332275663206978 26.8208154239465912
 24.7247433785847193 19.8164955857231462 27.7582073397798226
 22.2706194821539327 18.2997636051255945 28.6955992556130575
 24.7247433785847193 22.8499595469182495 27.7582073397798226
 22.2706194821539327 21.3332275663206978 28.6955992556130575
 22.2706194821539327 24.3666915275158047 28.6955992556130575
 27.1788672750155058 18.2997636051255945 12.8121757474997011
 24.7247433785847193 16.7830316245280429 11.8747838316664698
 22.2706194821539327 15.2662996439304877 10.9373919158332349
 27.1788672750155058 21.3332275663206978 12.8121757474997011
 24.7247433785847193 19.8164955857231462 11.8747838316664698
 22.2706194821539327 18.2997636051255945 10.9373919158332349
 24.7247433785847193 22.8499595469182495 11.8747838316664698
 22.2706194821539327 21.3332275663206978 10.9373919158332349
 22.2706194821539327 24.3666915275158047 10.9373919158332349
 12.4541238964307865 18.2997636051255945 26.8208154239465912
 14.9082477928615731 16.7830316245280429 27.7582073397798226
 17.3623716892923596 15.2662996439304877 28.6955992556130575
 12.4541238964307865 21.3332275663206978 26.8208154239465912
 14.9082477928615731 19.8164955857231462 27.7582073397798226
 17.3623716892923596 18.2997636051255945 28.6955992556130575
 14.9082477928615731 22.8499595469182495 27.7582073397798226
 17.3623716892923596 21.3332275663206978 28.6955992556130575
 17.3623716892923596 24.3666915275158047 28.6955992556130575
 12.4541238964307865 18.2997636051255945 12.8121757474997011
 14.9082477928615731 16.7830316245280429 11.8747838316664698
 17.3623716892923596 15.2662996439304877 10.9373919158332349
 12.4541238964307865 21.3332275663206978 12.8121757474997011
 14.9082477928615731 19.8164955857231462 11.8747838316664698
 17.3623716892923596 18.2997636051255945 10.9373919158332349
 14.9082477928615731 22.8499595469182495 11.8747838316664698
 17.3623716892923596 21.3332275663206978 10.9373919158332349
 17.3623716892923596 24.3666915275158047 10.9373919158332349
 26.8208154239465912 27.1788672750155058 18.2997636051255945
 27.7582073397798226 24.7247433785847193 16.7830316245280429
 28.6955992556130575 22.2706194821539327 15.2662996439304877
 26.8208154239465912 27.1788672750155058 21.3332275663206978
 27.7582073397798226 24.7247433785847193 19.8164955857231462
 28.6955992556130575 22.2706194821539327 18.2997636051255945
 27.7582073397798226 24.7247433785847193 22.8499595469182495
 28.6955992556130575 22.2706194821539327 21.3332275663206978
 28.6955992556130575 22.2706194821539327 24.3666915275158047
 12.8121757474997011 27.1788672750155058 18.2997636051255945
 11.8747838316664698 24.7247433785847193 16.7830316245280429
 10.9373919158332349 22.2706194821539327 15.2662996439304877
 12.8121757474997011 27.1788672750155058 21.3332275663206978
 11.8747838316664698 24.7247433785847193 19.8164955857231462
 10.9373919158332349 22.2706194821539327 18.2997636051255945
 11.8747838316664698 24.7247433785847193 22.8499595469182495
 10.9373919158332349 22.2706194821539327 21.3332275663206978
 10.9373919158332349 22.2706194821539327 24.3666915275158047
 26.8208154239465912 12.4541238964307865 18.2997636051255945
 27.7582073397798226 14.9082477928615731 16.7830316245280429
 28.6955992556130575 17.3623716892923596 15.2662996439304877
 26.8208154239465912 12.4541238964307865 21.3332275663206978
 27.7582073397798226 14.9082477928615731 19.8164955857231462
 28.6955992556130575 17.3623716892923596 18.2997636051255945
 27.7582073397798226 14.9082477928615731 22.8499595469182495
 28.6955992556130575 17.3623716892923596 21.3332275663206978
 28.6955992556130575 17.3623716892923596 24.3666915275158047
 12.8121757474997011 12.4541238964307865 18.2997636051255945
 11.8747838316664698 14.9082477928615731 16.7830316245280429
 10.9373919158332349 17.3623716892923596 15.2662996439304877
 12.8121757474997011 12.4541238964307865 21.3332275663206978
 11.8747838316664698 14.9082477928615731 19.8164955857231462
 10.9373919158332349 17.3623716892923596 18.2997636051255945
 11.8747838316664698 14.9082477928615731 22.8499595469182495
 10.9373919158332349 17.3623716892923596 21.3332275663206978
 10.9373919158332349 17.3623716892923596 24.3666915275158047
 18.2997636051255945 26.8208154239465912 27.1788672750155058
 16.7830316245280429 27.7582073397798226 24.7247433785847193
 15.2662996439304877 28.6955992556130575 22.2706194821539327
 21.3332275663206978 26.8208154239465912 27.1788672750155058
 19.8164955857231462 27.7582073397798226 24.7247433785847193
 18.2997636051255945 28.6955992556130575 22.2706194821539327
 22.8499595469182495 27.7582073397798226 24.7247433785847193
 21.3332275663206978 28.6955992556130575 22.2706194821539327
 24.3666915275158047 28.6955992556130575 22.2706194821539327
 18.2997636051255945 12.8121757474997011 27.1788672750155058
 16.7830316245280429 11.8747838316664698 24.7247433785847193
 15.2662996439304877 10.9373919158332349 22.2706194821539327
 21.3332275663206978 12.8121757474997011 27.1788672750155058
 19.8164955857231462 11.8747838316664698 24.7247433785847193
 18.2997636051255945 10.9373919158332349 22.2706194821539327
 22.8499595469182495 11.8747838316664698 24.7247433785847193
 21.3332275663206978 10.9373919158332349 22.2706194821539327
 24.3666915275158047 10.9373919158332349 22.2706194821539327
 18.2997636051255945 26.8208154239465912 12.4541238964307865
 16.7830316245280429 27.7582073397798226 14.9082477928615731
 15.2662996439304877 28.6955992556130575 17.3623716892923596
 21.3332275663206978 26.8208154239465912 12.4541238964307865
 19.8164955857231462 27.7582073397798226 14.9082477928615731
 18.2997636051255945 28.6955992556130575 17.3623716892923596
 22.8499595469182495 27.7582073397798226 14.9082477928615731
 21.3332275663206978 28.6955992556130575 17.3623716892923596
 24.3666915275158047 28.6955992556130575 17.3623716892923596
 18.2997636051255945 12.8121757474997011 12.4541238964307865
 16.7830316245280429 11.8747838316664698 14.9082477928615731
 15.2662996439304877 10.9373919158332349 17.3623716892923596
 21.3332275663206978 12.8121757474997011 12.4541238964307865
 19.8164955857231462 11.8747838316664698 14.9082477928615731
 18.2997636051255945 10.9373919158332349 17.3623716892923596
 22.8499595469182495 11.8747838316664698 14.9082477928615731
 21.3332275663206978 10.9373919158332349 17.3623716892923596
 24.3666915275158047 10.9373919158332349 17.3623716892923596
 26.2414753591822709 15.8456397086948080 25.3040834433490360
 26.2414753591822709 23.7873514627514844 25.3040834433490360
 25.3040834433490360 13.3915158122640214 23.7873514627514844
 25.3040834433490360 26.2414753591822709 23.7873514627514844
 23.7873514627514844 14.3289077280972545 26.2414753591822709
 23.7873514627514844 25.3040834433490360 26.2414753591822709
 26.2414753591822709 15.8456397086948080 14.3289077280972545
 26.2414753591822709 23.7873514627514844 14.3289077280972545
 25.3040834433490360 13.3915158122640214 15.8456397086948080
 25.3040834433490360 26.2414753591822709 15.8456397086948080
 23.7873514627514844 14.3289077280972545 13.3915158122640214
 23.7873514627514844 25.3040834433490360 13.3915158122640214
 13.3915158122640214 15.8456397086948080 25.3040834433490360
 13.3915158122640214 23.7873514627514844 25.3040834433490360
 14.3289077280972545 13.3915158122640214 23.7873514627514844
 14.3289077280972545 26.2414753591822709 23.7873514627514844
 15.8456397086948080 14.3289077280972545 26.2414753591822709
 15.8456397086948080 25.3040834433490360 26.2414753591822709
 13.3915158122640214 15.8456397086948080 14.3289077280972545
 13.3915158122640214 23.7873514627514844 14.3289077280972545
 14.3289077280972545 13.3915158122640214 15.8456397086948080
 14.3289077280972545 26.2414753591822709 15.8456397086948080
 15.8456397086948080 14.3289077280972545 13.3915158122640214
 15.8456397086948080 25.3040834433490360 13.3915158122640214
