Pt 
 1.0000000000000000
    43.9080028128236819    0.0000000000000000    0.0000000000000000
     0.0000000000000000   42.7378618667388253    0.0000000000000000
     0.0000000000000000    0.0000000000000000   44.9467272402613958
 Pt 
 520
Cartesian
 21.9540014064118409 21.6522715172172120 10.0000000000000000
 21.9540014064118409 21.6522715172172120 12.7718585822512658
 21.9540014064118409 21.6522715172172120 15.5437171645025316
 21.9540014064118409 21.6522715172172120 18.3155757467538010
 21.9540014064118409 21.6522715172172120 21.0874343290050632
 21.9540014064118409 21.6522715172172120 23.8592929112563326
 21.9540014064118409 21.6522715172172120 26.6311514935075984
 21.9540014064118409 21.6522715172172120 29.4030100757588642
 21.9540014064118409 21.6522715172172120 32.1748686580101264
 21.9540014064118409 21.6522715172172120 34.9467272402613958
 24.2370125242544816 22.3940667961229884 11.3859292911256329
 24.2370125242544816 22.3940667961229884 14.1577878733768987
 24.2370125242544816 22.3940667961229884 16.9296464556281663
 24.2370125242544816 22.3940667961229884 19.7015050378794321
 24.2370125242544816 22.3940667961229884 22.4733636201306979
 24.2370125242544816 22.3940667961229884 25.2452222023819637
 24.2370125242544816 22.3940667961229884 28.0170807846332295
 24.2370125242544816 22.3940667961229884 30.7889393668844988
 24.2370125242544816 22.3940667961229884 33.5607979491357611
 21.9540014064118409 24.0527714651447262 11.3859292911256329
 21.9540014064118409 24.0527714651447262 14.1577878733768987
 21.9540014064118409 24.0527714651447262 16.9296464556281663
 21.9540014064118409 24.0527714651447262 19.7015050378794321
 21.9540014064118409 24.0527714651447262 22.4733636201306979
 21.9540014064118409 24.0527714651447262 25.2452222023819637
 21.9540014064118409 24.0527714651447262 28.0170807846332295
 21.9540014064118409 24.0527714651447262 30.7889393668844988
 21.9540014064118409 24.0527714651447262 33.5607979491357611
 19.6709902885692003 22.3940667961229920 11.3859292911256329
 19.6709902885692003 22.3940667961229920 14.1577878733768987
 19.6709902885692003 22.3940667961229920 16.9296464556281663
 19.6709902885692003 22.3940667961229920 19.7015050378794321
 19.6709902885692003 22.3940667961229920 22.4733636201306979
 19.6709902885692003 22.3940667961229920 25.2452222023819637
 19.6709902885692003 22.3940667961229920 28.0170807846332295
 19.6709902885692003 22.3940667961229920 30.7889393668844988
 19.6709902885692003 22.3940667961229920 33.5607979491357611
 20.5430229388911982 19.7102262643476784 11.3859292911256329
 20.5430229388911982 19.7102262643476784 14.1577878733768987
 20.5430229388911982 19.7102262643476784 16.9296464556281663
 20.5430229388911982 19.7102262643476784 19.7015050378794321
 20.5430229388911982 19.7102262643476784 22.4733636201306979
 20.5430229388911982 19.7102262643476784 25.2452222023819637
 20.5430229388911982 19.7102262643476784 28.0170807846332295
 20.5430229388911982 19.7102262643476784 30.7889393668844988
 20.5430229388911982 19.7102262643476784 33.5607979491357611
 23.3649798739324837 19.7102262643476749 11.3859292911256329
 23.3649798739324837 19.7102262643476749 14.1577878733768987
 23.3649798739324837 19.7102262643476749 16.9296464556281663
 23.3649798739324837 19.7102262643476749 19.7015050378794321
 23.3649798739324837 19.7102262643476749 22.4733636201306979
 23.3649798739324837 19.7102262643476749 25.2452222023819637
 23.3649798739324837 19.7102262643476749 28.0170807846332295
 23.3649798739324837 19.7102262643476749 30.7889393668844988
 23.3649798739324837 19.7102262643476749 33.5607979491357611
 26.5200236420971187 23.1358620750287685 12.7718585822512658
 26.5200236420971187 23.1358620750287685 15.5437171645025316
 26.5200236420971187 23.1358620750287685 18.3155757467537974
 26.5200236420971187 23.1358620750287685 21.0874343290050632
 26.5200236420971187 23.1358620750287685 23.8592929112563326
 26.5200236420971187 23.1358620750287685 26.6311514935075948
 26.5200236420971187 23.1358620750287685 29.4030100757588642
 26.5200236420971187 23.1358620750287685 32.1748686580101264
 24.2370125242544816 24.7945667440505026 12.7718585822512658
 24.2370125242544816 24.7945667440505026 15.5437171645025316
 24.2370125242544816 24.7945667440505026 18.3155757467537974
 24.2370125242544816 24.7945667440505026 21.0874343290050632
 24.2370125242544816 24.7945667440505026 23.8592929112563326
 24.2370125242544816 24.7945667440505026 26.6311514935075948
 24.2370125242544816 24.7945667440505026 29.4030100757588642
 24.2370125242544816 24.7945667440505026 32.1748686580101264
 21.9540014064118409 26.4532714130722404 12.7718585822512658
 21.9540014064118409 26.4532714130722404 15.5437171645025316
 21.9540014064118409 26.4532714130722404 18.3155757467537974
 21.9540014064118409 26.4532714130722404 21.0874343290050632
 21.9540014064118409 26.4532714130722404 23.8592929112563326
 21.9540014064118409 26.4532714130722404 26.6311514935075948
 21.9540014064118409 26.4532714130722404 29.4030100757588642
 21.9540014064118409 26.4532714130722404 32.1748686580101264
 19.6709902885692003 24.7945667440505062 12.7718585822512658
 19.6709902885692003 24.7945667440505062 15.5437171645025316
 19.6709902885692003 24.7945667440505062 18.3155757467537974
 19.6709902885692003 24.7945667440505062 21.0874343290050632
 19.6709902885692003 24.7945667440505062 23.8592929112563326
 19.6709902885692003 24.7945667440505062 26.6311514935075948
 19.6709902885692003 24.7945667440505062 29.4030100757588642
 19.6709902885692003 24.7945667440505062 32.1748686580101264
 17.3879791707265632 23.1358620750287685 12.7718585822512658
 17.3879791707265632 23.1358620750287685 15.5437171645025316
 17.3879791707265632 23.1358620750287685 18.3155757467537974
 17.3879791707265632 23.1358620750287685 21.0874343290050632
 17.3879791707265632 23.1358620750287685 23.8592929112563326
 17.3879791707265632 23.1358620750287685 26.6311514935075948
 17.3879791707265632 23.1358620750287685 29.4030100757588642
 17.3879791707265632 23.1358620750287685 32.1748686580101264
 18.2600118210485576 20.4520215432534549 12.7718585822512658
 18.2600118210485576 20.4520215432534549 15.5437171645025316
 18.2600118210485576 20.4520215432534549 18.3155757467537974
 18.2600118210485576 20.4520215432534549 21.0874343290050632
 18.2600118210485576 20.4520215432534549 23.8592929112563326
 18.2600118210485576 20.4520215432534549 26.6311514935075948
 18.2600118210485576 20.4520215432534549 29.4030100757588642
 18.2600118210485576 20.4520215432534549 32.1748686580101264
 19.1320444713705555 17.7681810114781413 12.7718585822512658
 19.1320444713705555 17.7681810114781413 15.5437171645025316
 19.1320444713705555 17.7681810114781413 18.3155757467537974
 19.1320444713705555 17.7681810114781413 21.0874343290050632
 19.1320444713705555 17.7681810114781413 23.8592929112563326
 19.1320444713705555 17.7681810114781413 26.6311514935075948
 19.1320444713705555 17.7681810114781413 29.4030100757588642
 19.1320444713705555 17.7681810114781413 32.1748686580101264
 21.9540014064118409 17.7681810114781413 12.7718585822512658
 21.9540014064118409 17.7681810114781413 15.5437171645025316
 21.9540014064118409 17.7681810114781413 18.3155757467537974
 21.9540014064118409 17.7681810114781413 21.0874343290050632
 21.9540014064118409 17.7681810114781413 23.8592929112563326
 21.9540014064118409 17.7681810114781413 26.6311514935075948
 21.9540014064118409 17.7681810114781413 29.4030100757588642
 21.9540014064118409 17.7681810114781413 32.1748686580101264
 24.7759583414531264 17.7681810114781413 12.7718585822512658
 24.7759583414531264 17.7681810114781413 15.5437171645025316
 24.7759583414531264 17.7681810114781413 18.3155757467537974
 24.7759583414531264 17.7681810114781413 21.0874343290050632
 24.7759583414531264 17.7681810114781413 23.8592929112563326
 24.7759583414531264 17.7681810114781413 26.6311514935075948
 24.7759583414531264 17.7681810114781413 29.4030100757588642
 24.7759583414531264 17.7681810114781413 32.1748686580101264
 25.6479909917751243 20.4520215432534549 12.7718585822512658
 25.6479909917751243 20.4520215432534549 15.5437171645025316
 25.6479909917751243 20.4520215432534549 18.3155757467537974
 25.6479909917751243 20.4520215432534549 21.0874343290050632
 25.6479909917751243 20.4520215432534549 23.8592929112563326
 25.6479909917751243 20.4520215432534549 26.6311514935075948
 25.6479909917751243 20.4520215432534549 29.4030100757588642
 25.6479909917751243 20.4520215432534549 32.1748686580101264
 28.8030347599397594 23.8776573539345449 14.1577878733768987
 28.8030347599397594 23.8776573539345449 16.9296464556281663
 28.8030347599397594 23.8776573539345449 19.7015050378794321
 28.8030347599397594 23.8776573539345449 22.4733636201306979
 28.8030347599397594 23.8776573539345449 25.2452222023819637
 28.8030347599397594 23.8776573539345449 28.0170807846332295
 28.8030347599397594 23.8776573539345449 30.7889393668844988
 26.5200236420971187 25.5363620229562827 14.1577878733768987
 26.5200236420971187 25.5363620229562827 16.9296464556281663
 26.5200236420971187 25.5363620229562827 19.7015050378794321
 26.5200236420971187 25.5363620229562827 22.4733636201306979
 26.5200236420971187 25.5363620229562827 25.2452222023819637
 26.5200236420971187 25.5363620229562827 28.0170807846332295
 26.5200236420971187 25.5363620229562827 30.7889393668844988
 24.2370125242544816 27.1950666919780168 14.1577878733768987
 24.2370125242544816 27.1950666919780168 16.9296464556281663
 24.2370125242544816 27.1950666919780168 19.7015050378794321
 24.2370125242544816 27.1950666919780168 22.4733636201306979
 24.2370125242544816 27.1950666919780168 25.2452222023819637
 24.2370125242544816 27.1950666919780168 28.0170807846332295
 24.2370125242544816 27.1950666919780168 30.7889393668844988
 21.9540014064118409 28.8537713609997546 14.1577878733768987
 21.9540014064118409 28.8537713609997546 16.9296464556281663
 21.9540014064118409 28.8537713609997546 19.7015050378794321
 21.9540014064118409 28.8537713609997546 22.4733636201306979
 21.9540014064118409 28.8537713609997546 25.2452222023819637
 21.9540014064118409 28.8537713609997546 28.0170807846332295
 21.9540014064118409 28.8537713609997546 30.7889393668844988
 19.6709902885692003 27.1950666919780204 14.1577878733768987
 19.6709902885692003 27.1950666919780204 16.9296464556281663
 19.6709902885692003 27.1950666919780204 19.7015050378794321
 19.6709902885692003 27.1950666919780204 22.4733636201306979
 19.6709902885692003 27.1950666919780204 25.2452222023819637
 19.6709902885692003 27.1950666919780204 28.0170807846332295
 19.6709902885692003 27.1950666919780204 30.7889393668844988
 17.3879791707265632 25.5363620229562827 14.1577878733768987
 17.3879791707265632 25.5363620229562827 16.9296464556281663
 17.3879791707265632 25.5363620229562827 19.7015050378794321
 17.3879791707265632 25.5363620229562827 22.4733636201306979
 17.3879791707265632 25.5363620229562827 25.2452222023819637
 17.3879791707265632 25.5363620229562827 28.0170807846332295
 17.3879791707265632 25.5363620229562827 30.7889393668844988
 15.1049680528839225 23.8776573539345485 14.1577878733768987
 15.1049680528839225 23.8776573539345485 16.9296464556281663
 15.1049680528839225 23.8776573539345485 19.7015050378794321
 15.1049680528839225 23.8776573539345485 22.4733636201306979
 15.1049680528839225 23.8776573539345485 25.2452222023819637
 15.1049680528839225 23.8776573539345485 28.0170807846332295
 15.1049680528839225 23.8776573539345485 30.7889393668844988
 15.9770007032059205 21.1938168221592349 14.1577878733768987
 15.9770007032059205 21.1938168221592349 16.9296464556281663
 15.9770007032059205 21.1938168221592349 19.7015050378794321
 15.9770007032059205 21.1938168221592349 22.4733636201306979
 15.9770007032059205 21.1938168221592349 25.2452222023819637
 15.9770007032059205 21.1938168221592349 28.0170807846332295
 15.9770007032059205 21.1938168221592349 30.7889393668844988
 16.8490333535279149 18.5099762903839213 14.1577878733768987
 16.8490333535279149 18.5099762903839213 16.9296464556281663
 16.8490333535279149 18.5099762903839213 19.7015050378794321
 16.8490333535279149 18.5099762903839213 22.4733636201306979
 16.8490333535279149 18.5099762903839213 25.2452222023819637
 16.8490333535279149 18.5099762903839213 28.0170807846332295
 16.8490333535279149 18.5099762903839213 30.7889393668844988
 17.7210660038499128 15.8261357586086078 14.1577878733768987
 17.7210660038499128 15.8261357586086078 16.9296464556281663
 17.7210660038499128 15.8261357586086078 19.7015050378794321
 17.7210660038499128 15.8261357586086078 22.4733636201306979
 17.7210660038499128 15.8261357586086078 25.2452222023819637
 17.7210660038499128 15.8261357586086078 28.0170807846332295
 17.7210660038499128 15.8261357586086078 30.7889393668844988
 20.5430229388911982 15.8261357586086060 14.1577878733768987
 20.5430229388911982 15.8261357586086060 16.9296464556281663
 20.5430229388911982 15.8261357586086060 19.7015050378794321
 20.5430229388911982 15.8261357586086060 22.4733636201306979
 20.5430229388911982 15.8261357586086060 25.2452222023819637
 20.5430229388911982 15.8261357586086060 28.0170807846332295
 20.5430229388911982 15.8261357586086060 30.7889393668844988
 23.3649798739324837 15.8261357586086042 14.1577878733768987
 23.3649798739324837 15.8261357586086042 16.9296464556281663
 23.3649798739324837 15.8261357586086042 19.7015050378794321
 23.3649798739324837 15.8261357586086042 22.4733636201306979
 23.3649798739324837 15.8261357586086042 25.2452222023819637
 23.3649798739324837 15.8261357586086042 28.0170807846332295
 23.3649798739324837 15.8261357586086042 30.7889393668844988
 26.1869368089737691 15.8261357586086042 14.1577878733768987
 26.1869368089737691 15.8261357586086042 16.9296464556281663
 26.1869368089737691 15.8261357586086042 19.7015050378794321
 26.1869368089737691 15.8261357586086042 22.4733636201306979
 26.1869368089737691 15.8261357586086042 25.2452222023819637
 26.1869368089737691 15.8261357586086042 28.0170807846332295
 26.1869368089737691 15.8261357586086042 30.7889393668844988
 27.0589694592957635 18.5099762903839178 14.1577878733768987
 27.0589694592957635 18.5099762903839178 16.9296464556281663
 27.0589694592957635 18.5099762903839178 19.7015050378794321
 27.0589694592957635 18.5099762903839178 22.4733636201306979
 27.0589694592957635 18.5099762903839178 25.2452222023819637
 27.0589694592957635 18.5099762903839178 28.0170807846332295
 27.0589694592957635 18.5099762903839178 30.7889393668844988
 27.9310021096177614 21.1938168221592314 14.1577878733768987
 27.9310021096177614 21.1938168221592314 16.9296464556281663
 27.9310021096177614 21.1938168221592314 19.7015050378794321
 27.9310021096177614 21.1938168221592314 22.4733636201306979
 27.9310021096177614 21.1938168221592314 25.2452222023819637
 27.9310021096177614 21.1938168221592314 28.0170807846332295
 27.9310021096177614 21.1938168221592314 30.7889393668844988
 31.0860458777823965 24.6194526328403214 15.5437171645025316
 31.0860458777823965 24.6194526328403214 18.3155757467538010
 31.0860458777823965 24.6194526328403214 21.0874343290050632
 31.0860458777823965 24.6194526328403214 23.8592929112563326
 31.0860458777823965 24.6194526328403214 26.6311514935075984
 31.0860458777823965 24.6194526328403214 29.4030100757588642
 28.8030347599397594 26.2781573018620591 15.5437171645025316
 28.8030347599397594 26.2781573018620591 18.3155757467538010
 28.8030347599397594 26.2781573018620591 21.0874343290050632
 28.8030347599397594 26.2781573018620591 23.8592929112563326
 28.8030347599397594 26.2781573018620591 26.6311514935075984
 28.8030347599397594 26.2781573018620591 29.4030100757588642
 26.5200236420971187 27.9368619708837969 15.5437171645025316
 26.5200236420971187 27.9368619708837969 18.3155757467538010
 26.5200236420971187 27.9368619708837969 21.0874343290050632
 26.5200236420971187 27.9368619708837969 23.8592929112563326
 26.5200236420971187 27.9368619708837969 26.6311514935075984
 26.5200236420971187 27.9368619708837969 29.4030100757588642
 24.2370125242544816 29.5955666399055310 15.5437171645025316
 24.2370125242544816 29.5955666399055310 18.3155757467538010
 24.2370125242544816 29.5955666399055310 21.0874343290050632
 24.2370125242544816 29.5955666399055310 23.8592929112563326
 24.2370125242544816 29.5955666399055310 26.6311514935075984
 24.2370125242544816 29.5955666399055310 29.4030100757588642
 21.9540014064118409 31.2542713089272688 15.5437171645025316
 21.9540014064118409 31.2542713089272688 18.3155757467538010
 21.9540014064118409 31.2542713089272688 21.0874343290050632
 21.9540014064118409 31.2542713089272688 23.8592929112563326
 21.9540014064118409 31.2542713089272688 26.6311514935075984
 21.9540014064118409 31.2542713089272688 29.4030100757588642
 19.6709902885692003 29.5955666399055346 15.5437171645025316
 19.6709902885692003 29.5955666399055346 18.3155757467538010
 19.6709902885692003 29.5955666399055346 21.0874343290050632
 19.6709902885692003 29.5955666399055346 23.8592929112563326
 19.6709902885692003 29.5955666399055346 26.6311514935075984
 19.6709902885692003 29.5955666399055346 29.4030100757588642
 17.3879791707265632 27.9368619708837969 15.5437171645025316
 17.3879791707265632 27.9368619708837969 18.3155757467538010
 17.3879791707265632 27.9368619708837969 21.0874343290050632
 17.3879791707265632 27.9368619708837969 23.8592929112563326
 17.3879791707265632 27.9368619708837969 26.6311514935075984
 17.3879791707265632 27.9368619708837969 29.4030100757588642
 15.1049680528839225 26.2781573018620627 15.5437171645025316
 15.1049680528839225 26.2781573018620627 18.3155757467538010
 15.1049680528839225 26.2781573018620627 21.0874343290050632
 15.1049680528839225 26.2781573018620627 23.8592929112563326
 15.1049680528839225 26.2781573018620627 26.6311514935075984
 15.1049680528839225 26.2781573018620627 29.4030100757588642
 12.8219569350412836 24.6194526328403249 15.5437171645025316
 12.8219569350412836 24.6194526328403249 18.3155757467538010
 12.8219569350412836 24.6194526328403249 21.0874343290050632
 12.8219569350412836 24.6194526328403249 23.8592929112563326
 12.8219569350412836 24.6194526328403249 26.6311514935075984
 12.8219569350412836 24.6194526328403249 29.4030100757588642
 13.6939895853632798 21.9356121010650114 15.5437171645025316
 13.6939895853632798 21.9356121010650114 18.3155757467538010
 13.6939895853632798 21.9356121010650114 21.0874343290050632
 13.6939895853632798 21.9356121010650114 23.8592929112563326
 13.6939895853632798 21.9356121010650114 26.6311514935075984
 13.6939895853632798 21.9356121010650114 29.4030100757588642
 14.5660222356852760 19.2517715692896978 15.5437171645025316
 14.5660222356852760 19.2517715692896978 18.3155757467538010
 14.5660222356852760 19.2517715692896978 21.0874343290050632
 14.5660222356852760 19.2517715692896978 23.8592929112563326
 14.5660222356852760 19.2517715692896978 26.6311514935075984
 14.5660222356852760 19.2517715692896978 29.4030100757588642
 15.4380548860072722 16.5679310375143842 15.5437171645025316
 15.4380548860072722 16.5679310375143842 18.3155757467538010
 15.4380548860072722 16.5679310375143842 21.0874343290050632
 15.4380548860072722 16.5679310375143842 23.8592929112563326
 15.4380548860072722 16.5679310375143842 26.6311514935075984
 15.4380548860072722 16.5679310375143842 29.4030100757588642
 16.3100875363292701 13.8840905057390707 15.5437171645025316
 16.3100875363292701 13.8840905057390707 18.3155757467538010
 16.3100875363292701 13.8840905057390707 21.0874343290050632
 16.3100875363292701 13.8840905057390707 23.8592929112563326
 16.3100875363292701 13.8840905057390707 26.6311514935075984
 16.3100875363292701 13.8840905057390707 29.4030100757588642
 19.1320444713705555 13.8840905057390707 15.5437171645025316
 19.1320444713705555 13.8840905057390707 18.3155757467538010
 19.1320444713705555 13.8840905057390707 21.0874343290050632
 19.1320444713705555 13.8840905057390707 23.8592929112563326
 19.1320444713705555 13.8840905057390707 26.6311514935075984
 19.1320444713705555 13.8840905057390707 29.4030100757588642
 21.9540014064118409 13.8840905057390707 15.5437171645025316
 21.9540014064118409 13.8840905057390707 18.3155757467538010
 21.9540014064118409 13.8840905057390707 21.0874343290050632
 21.9540014064118409 13.8840905057390707 23.8592929112563326
 21.9540014064118409 13.8840905057390707 26.6311514935075984
 21.9540014064118409 13.8840905057390707 29.4030100757588642
 24.7759583414531264 13.8840905057390689 15.5437171645025316
 24.7759583414531264 13.8840905057390689 18.3155757467538010
 24.7759583414531264 13.8840905057390689 21.0874343290050632
 24.7759583414531264 13.8840905057390689 23.8592929112563326
 24.7759583414531264 13.8840905057390689 26.6311514935075984
 24.7759583414531264 13.8840905057390689 29.4030100757588642
 27.5979152764944082 13.8840905057390689 15.5437171645025316
 27.5979152764944082 13.8840905057390689 18.3155757467538010
 27.5979152764944082 13.8840905057390689 21.0874343290050632
 27.5979152764944082 13.8840905057390689 23.8592929112563326
 27.5979152764944082 13.8840905057390689 26.6311514935075984
 27.5979152764944082 13.8840905057390689 29.4030100757588642
 28.4699479268164062 16.5679310375143807 15.5437171645025316
 28.4699479268164062 16.5679310375143807 18.3155757467538010
 28.4699479268164062 16.5679310375143807 21.0874343290050632
 28.4699479268164062 16.5679310375143807 23.8592929112563326
 28.4699479268164062 16.5679310375143807 26.6311514935075984
 28.4699479268164062 16.5679310375143807 29.4030100757588642
 29.3419805771384041 19.2517715692896942 15.5437171645025316
 29.3419805771384041 19.2517715692896942 18.3155757467538010
 29.3419805771384041 19.2517715692896942 21.0874343290050632
 29.3419805771384041 19.2517715692896942 23.8592929112563326
 29.3419805771384041 19.2517715692896942 26.6311514935075984
 29.3419805771384041 19.2517715692896942 29.4030100757588642
 30.2140132274604021 21.9356121010650078 15.5437171645025316
 30.2140132274604021 21.9356121010650078 18.3155757467538010
 30.2140132274604021 21.9356121010650078 21.0874343290050632
 30.2140132274604021 21.9356121010650078 23.8592929112563326
 30.2140132274604021 21.9356121010650078 26.6311514935075984
 30.2140132274604021 21.9356121010650078 29.4030100757588642
 31.0860458777823965 27.0199525807678356 16.9296464556281663
 31.0860458777823965 27.0199525807678356 19.7015050378794321
 31.0860458777823965 27.0199525807678356 22.4733636201306979
 31.0860458777823965 27.0199525807678356 25.2452222023819637
 31.0860458777823965 27.0199525807678356 28.0170807846332295
 28.8030347599397594 28.6786572497895733 16.9296464556281663
 28.8030347599397594 28.6786572497895733 19.7015050378794321
 28.8030347599397594 28.6786572497895733 22.4733636201306979
 28.8030347599397594 28.6786572497895733 25.2452222023819637
 28.8030347599397594 28.6786572497895733 28.0170807846332295
 26.5200236420971187 30.3373619188113111 16.9296464556281663
 26.5200236420971187 30.3373619188113111 19.7015050378794321
 26.5200236420971187 30.3373619188113111 22.4733636201306979
 26.5200236420971187 30.3373619188113111 25.2452222023819637
 26.5200236420971187 30.3373619188113111 28.0170807846332295
 24.2370125242544816 31.9960665878330488 16.9296464556281663
 24.2370125242544816 31.9960665878330488 19.7015050378794321
 24.2370125242544816 31.9960665878330488 22.4733636201306979
 24.2370125242544816 31.9960665878330488 25.2452222023819637
 24.2370125242544816 31.9960665878330488 28.0170807846332295
 19.6709902885692003 31.9960665878330488 16.9296464556281663
 19.6709902885692003 31.9960665878330488 19.7015050378794321
 19.6709902885692003 31.9960665878330488 22.4733636201306979
 19.6709902885692003 31.9960665878330488 25.2452222023819637
 19.6709902885692003 31.9960665878330488 28.0170807846332295
 17.3879791707265632 30.3373619188113111 16.9296464556281663
 17.3879791707265632 30.3373619188113111 19.7015050378794321
 17.3879791707265632 30.3373619188113111 22.4733636201306979
 17.3879791707265632 30.3373619188113111 25.2452222023819637
 17.3879791707265632 30.3373619188113111 28.0170807846332295
 15.1049680528839225 28.6786572497895769 16.9296464556281663
 15.1049680528839225 28.6786572497895769 19.7015050378794321
 15.1049680528839225 28.6786572497895769 22.4733636201306979
 15.1049680528839225 28.6786572497895769 25.2452222023819637
 15.1049680528839225 28.6786572497895769 28.0170807846332295
 12.8219569350412836 27.0199525807678391 16.9296464556281663
 12.8219569350412836 27.0199525807678391 19.7015050378794321
 12.8219569350412836 27.0199525807678391 22.4733636201306979
 12.8219569350412836 27.0199525807678391 25.2452222023819637
 12.8219569350412836 27.0199525807678391 28.0170807846332295
 11.4109784675206409 22.6774073799707914 16.9296464556281663
 11.4109784675206409 22.6774073799707914 19.7015050378794321
 11.4109784675206409 22.6774073799707914 22.4733636201306979
 11.4109784675206409 22.6774073799707914 25.2452222023819637
 11.4109784675206409 22.6774073799707914 28.0170807846332295
 12.2830111178426371 19.9935668481954778 16.9296464556281663
 12.2830111178426371 19.9935668481954778 19.7015050378794321
 12.2830111178426371 19.9935668481954778 22.4733636201306979
 12.2830111178426371 19.9935668481954778 25.2452222023819637
 12.2830111178426371 19.9935668481954778 28.0170807846332295
 13.1550437681646333 17.3097263164201642 16.9296464556281663
 13.1550437681646333 17.3097263164201642 19.7015050378794321
 13.1550437681646333 17.3097263164201642 22.4733636201306979
 13.1550437681646333 17.3097263164201642 25.2452222023819637
 13.1550437681646333 17.3097263164201642 28.0170807846332295
 14.0270764184866294 14.6258857846448507 16.9296464556281663
 14.0270764184866294 14.6258857846448507 19.7015050378794321
 14.0270764184866294 14.6258857846448507 22.4733636201306979
 14.0270764184866294 14.6258857846448507 25.2452222023819637
 14.0270764184866294 14.6258857846448507 28.0170807846332295
 17.7210660038499128 11.9420452528695353 16.9296464556281663
 17.7210660038499128 11.9420452528695353 19.7015050378794321
 17.7210660038499128 11.9420452528695353 22.4733636201306979
 17.7210660038499128 11.9420452528695353 25.2452222023819637
 17.7210660038499128 11.9420452528695353 28.0170807846332295
 20.5430229388911947 11.9420452528695353 16.9296464556281663
 20.5430229388911947 11.9420452528695353 19.7015050378794321
 20.5430229388911947 11.9420452528695353 22.4733636201306979
 20.5430229388911947 11.9420452528695353 25.2452222023819637
 20.5430229388911947 11.9420452528695353 28.0170807846332295
 23.3649798739324801 11.9420452528695336 16.9296464556281663
 23.3649798739324801 11.9420452528695336 19.7015050378794321
 23.3649798739324801 11.9420452528695336 22.4733636201306979
 23.3649798739324801 11.9420452528695336 25.2452222023819637
 23.3649798739324801 11.9420452528695336 28.0170807846332295
 26.1869368089737655 11.9420452528695336 16.9296464556281663
 26.1869368089737655 11.9420452528695336 19.7015050378794321
 26.1869368089737655 11.9420452528695336 22.4733636201306979
 26.1869368089737655 11.9420452528695336 25.2452222023819637
 26.1869368089737655 11.9420452528695336 28.0170807846332295
 29.8809263943370489 14.6258857846448471 16.9296464556281663
 29.8809263943370489 14.6258857846448471 19.7015050378794321
 29.8809263943370489 14.6258857846448471 22.4733636201306979
 29.8809263943370489 14.6258857846448471 25.2452222023819637
 29.8809263943370489 14.6258857846448471 28.0170807846332295
 30.7529590446590468 17.3097263164201607 16.9296464556281663
 30.7529590446590468 17.3097263164201607 19.7015050378794321
 30.7529590446590468 17.3097263164201607 22.4733636201306979
 30.7529590446590468 17.3097263164201607 25.2452222023819637
 30.7529590446590468 17.3097263164201607 28.0170807846332295
 31.6249916949810412 19.9935668481954743 16.9296464556281663
 31.6249916949810412 19.9935668481954743 19.7015050378794321
 31.6249916949810412 19.9935668481954743 22.4733636201306979
 31.6249916949810412 19.9935668481954743 25.2452222023819637
 31.6249916949810412 19.9935668481954743 28.0170807846332295
 32.4970243453030392 22.6774073799707878 16.9296464556281663
 32.4970243453030392 22.6774073799707878 19.7015050378794321
 32.4970243453030392 22.6774073799707878 22.4733636201306979
 32.4970243453030392 22.6774073799707878 25.2452222023819637
 32.4970243453030392 22.6774073799707878 28.0170807846332295
 31.0860458777823965 29.4204525286953498 18.3155757467537974
 31.0860458777823965 29.4204525286953498 21.0874343290050632
 31.0860458777823965 29.4204525286953498 23.8592929112563326
 31.0860458777823965 29.4204525286953498 26.6311514935075984
 28.8030347599397594 31.0791571977170875 18.3155757467537974
 28.8030347599397594 31.0791571977170875 21.0874343290050632
 28.8030347599397594 31.0791571977170875 23.8592929112563326
 28.8030347599397594 31.0791571977170875 26.6311514935075984
 26.5200236420971223 32.7378618667388253 18.3155757467537974
 26.5200236420971223 32.7378618667388253 21.0874343290050632
 26.5200236420971223 32.7378618667388253 23.8592929112563326
 26.5200236420971223 32.7378618667388253 26.6311514935075984
 17.3879791707265632 32.7378618667388253 18.3155757467537974
 17.3879791707265632 32.7378618667388253 21.0874343290050632
 17.3879791707265632 32.7378618667388253 23.8592929112563326
 17.3879791707265632 32.7378618667388253 26.6311514935075984
 15.1049680528839225 31.0791571977170911 18.3155757467537974
 15.1049680528839225 31.0791571977170911 21.0874343290050632
 15.1049680528839225 31.0791571977170911 23.8592929112563326
 15.1049680528839225 31.0791571977170911 26.6311514935075984
 12.8219569350412836 29.4204525286953533 18.3155757467537974
 12.8219569350412836 29.4204525286953533 21.0874343290050632
 12.8219569350412836 29.4204525286953533 23.8592929112563326
 12.8219569350412836 29.4204525286953533 26.6311514935075984
  9.9999999999999982 20.7353621271012543 18.3155757467537974
  9.9999999999999982 20.7353621271012543 21.0874343290050632
  9.9999999999999982 20.7353621271012543 23.8592929112563326