Au 
 1.0000000000000000
    56.2038722821785726    0.0000000000000000    0.0000000000000000
     0.0000000000000000   54.4319286490834244    0.0000000000000000
     0.0000000000000000    0.0000000000000000   51.7349523396522528
 Au 
 1132
Cartesian
 28.1019361410892827 26.1704992483830736 10.0000000000000000
 28.1019361410892827 26.1704992483830736 12.8849956672411139
 28.1019361410892827 26.1704992483830736 15.7699913344822278
 28.1019361410892827 26.1704992483830736 18.6549870017233417
 28.1019361410892827 26.1704992483830736 21.5399826689644556
 28.1019361410892827 26.1704992483830736 24.4249783362055695
 28.1019361410892827 26.1704992483830736 27.3099740034466834
 28.1019361410892827 26.1704992483830736 30.1949696706877972
 28.1019361410892827 26.1704992483830736 33.0799653379289111
 28.1019361410892827 26.1704992483830736 35.9649610051700250
 28.1019361410892827 26.1704992483830736 38.8499566724111389
 28.1019361410892827 26.1704992483830736 41.7349523396522528
 30.4781313861908068 26.9425718856115353 11.4424978336205569
 30.4781313861908068 26.9425718856115353 14.3274935008616708
 30.4781313861908068 26.9425718856115353 17.2124891681027847
 30.4781313861908068 26.9425718856115353 20.0974848353438986
 30.4781313861908068 26.9425718856115353 22.9824805025850125
 30.4781313861908068 26.9425718856115353 25.8674761698261264
 30.4781313861908068 26.9425718856115353 28.7524718370672403
 30.4781313861908068 26.9425718856115353 31.6374675043083542
 30.4781313861908068 26.9425718856115353 34.5224631715494681
 30.4781313861908068 26.9425718856115353 37.4074588387905820
 30.4781313861908068 26.9425718856115353 40.2924545060316959
 28.1019361410892827 28.6689787860219170 11.4424978336205569
 28.1019361410892827 28.6689787860219170 14.3274935008616708
 28.1019361410892827 28.6689787860219170 17.2124891681027847
 28.1019361410892827 28.6689787860219170 20.0974848353438986
 28.1019361410892827 28.6689787860219170 22.9824805025850125
 28.1019361410892827 28.6689787860219170 25.8674761698261264
 28.1019361410892827 28.6689787860219170 28.7524718370672403
 28.1019361410892827 28.6689787860219170 31.6374675043083542
 28.1019361410892827 28.6689787860219170 34.5224631715494681
 28.1019361410892827 28.6689787860219170 37.4074588387905820
 28.1019361410892827 28.6689787860219170 40.2924545060316959
 25.7257408959877587 26.9425718856115353 11.4424978336205569
 25.7257408959877587 26.9425718856115353 14.3274935008616708
 25.7257408959877587 26.9425718856115353 17.2124891681027847
 25.7257408959877587 26.9425718856115353 20.0974848353438986
 25.7257408959877587 26.9425718856115353 22.9824805025850125
 25.7257408959877587 26.9425718856115353 25.8674761698261264
 25.7257408959877587 26.9425718856115353 28.7524718370672403
 25.7257408959877587 26.9425718856115353 31.6374675043083542
 25.7257408959877587 26.9425718856115353 34.5224631715494681
 25.7257408959877587 26.9425718856115353 37.4074588387905820
 25.7257408959877587 26.9425718856115353 40.2924545060316959
 26.6333667157106539 24.1491868423351903 11.4424978336205569
 26.6333667157106539 24.1491868423351903 14.3274935008616708
 26.6333667157106539 24.1491868423351903 17.2124891681027847
 26.6333667157106539 24.1491868423351903 20.0974848353438986
 26.6333667157106539 24.1491868423351903 22.9824805025850125
 26.6333667157106539 24.1491868423351903 25.8674761698261264
 26.6333667157106539 24.1491868423351903 28.7524718370672403
 26.6333667157106539 24.1491868423351903 31.6374675043083542
 26.6333667157106539 24.1491868423351903 34.5224631715494681
 26.6333667157106539 24.1491868423351903 37.4074588387905820
 26.6333667157106539 24.1491868423351903 40.2924545060316959
 29.5705055664679115 24.1491868423351903 11.4424978336205569
 29.5705055664679115 24.1491868423351903 14.3274935008616708
 29.5705055664679115 24.1491868423351903 17.2124891681027847
 29.5705055664679115 24.1491868423351903 20.0974848353438986
 29.5705055664679115 24.1491868423351903 22.9824805025850125
 29.5705055664679115 24.1491868423351903 25.8674761698261264
 29.5705055664679115 24.1491868423351903 28.7524718370672403
 29.5705055664679115 24.1491868423351903 31.6374675043083542
 29.5705055664679115 24.1491868423351903 34.5224631715494681
 29.5705055664679115 24.1491868423351903 37.4074588387905820
 29.5705055664679115 24.1491868423351903 40.2924545060316959
 32.8543266312923308 27.7146445228399969 12.8849956672411139
 32.8543266312923308 27.7146445228399969 15.7699913344822278
 32.8543266312923308 27.7146445228399969 18.6549870017233417
 32.8543266312923308 27.7146445228399969 21.5399826689644556
 32.8543266312923308 27.7146445228399969 24.4249783362055695
 32.8543266312923308 27.7146445228399969 27.3099740034466834
 32.8543266312923308 27.7146445228399969 30.1949696706877972
 32.8543266312923308 27.7146445228399969 33.0799653379289111
 32.8543266312923308 27.7146445228399969 35.9649610051700250
 32.8543266312923308 27.7146445228399969 38.8499566724111389
 30.4781313861908068 29.4410514232503786 12.8849956672411139
 30.4781313861908068 29.4410514232503786 15.7699913344822278
 30.4781313861908068 29.4410514232503786 18.6549870017233417
 30.4781313861908068 29.4410514232503786 21.5399826689644556
 30.4781313861908068 29.4410514232503786 24.4249783362055695
 30.4781313861908068 29.4410514232503786 27.3099740034466834
 30.4781313861908068 29.4410514232503786 30.1949696706877972
 30.4781313861908068 29.4410514232503786 33.0799653379289111
 30.4781313861908068 29.4410514232503786 35.9649610051700250
 30.4781313861908068 29.4410514232503786 38.8499566724111389
 28.1019361410892827 31.1674583236607567 12.8849956672411139
 28.1019361410892827 31.1674583236607567 15.7699913344822278
 28.1019361410892827 31.1674583236607567 18.6549870017233417
 28.1019361410892827 31.1674583236607567 21.5399826689644556
 28.1019361410892827 31.1674583236607567 24.4249783362055695
 28.1019361410892827 31.1674583236607567 27.3099740034466834
 28.1019361410892827 31.1674583236607567 30.1949696706877972
 28.1019361410892827 31.1674583236607567 33.0799653379289111
 28.1019361410892827 31.1674583236607567 35.9649610051700250
 28.1019361410892827 31.1674583236607567 38.8499566724111389
 25.7257408959877587 29.4410514232503786 12.8849956672411139
 25.7257408959877587 29.4410514232503786 15.7699913344822278
 25.7257408959877587 29.4410514232503786 18.6549870017233417
 25.7257408959877587 29.4410514232503786 21.5399826689644556
 25.7257408959877587 29.4410514232503786 24.4249783362055695
 25.7257408959877587 29.4410514232503786 27.3099740034466834
 25.7257408959877587 29.4410514232503786 30.1949696706877972
 25.7257408959877587 29.4410514232503786 33.0799653379289111
 25.7257408959877587 29.4410514232503786 35.9649610051700250
 25.7257408959877587 29.4410514232503786 38.8499566724111389
 23.3495456508862382 27.7146445228400005 12.8849956672411139
 23.3495456508862382 27.7146445228400005 15.7699913344822278
 23.3495456508862382 27.7146445228400005 18.6549870017233417
 23.3495456508862382 27.7146445228400005 21.5399826689644556
 23.3495456508862382 27.7146445228400005 24.4249783362055695
 23.3495456508862382 27.7146445228400005 27.3099740034466834
 23.3495456508862382 27.7146445228400005 30.1949696706877972
 23.3495456508862382 27.7146445228400005 33.0799653379289111
 23.3495456508862382 27.7146445228400005 35.9649610051700250
 23.3495456508862382 27.7146445228400005 38.8499566724111389
 24.2571714706091299 24.9212594795636520 12.8849956672411139
 24.2571714706091299 24.9212594795636520 15.7699913344822278
 24.2571714706091299 24.9212594795636520 18.6549870017233417
 24.2571714706091299 24.9212594795636520 21.5399826689644556
 24.2571714706091299 24.9212594795636520 24.4249783362055695
 24.2571714706091299 24.9212594795636520 27.3099740034466834
 24.2571714706091299 24.9212594795636520 30.1949696706877972
 24.2571714706091299 24.9212594795636520 33.0799653379289111
 24.2571714706091299 24.9212594795636520 35.9649610051700250
 24.2571714706091299 24.9212594795636520 38.8499566724111389
 25.1647972903320252 22.1278744362873070 12.8849956672411139
 25.1647972903320252 22.1278744362873070 15.7699913344822278
 25.1647972903320252 22.1278744362873070 18.6549870017233417
 25.1647972903320252 22.1278744362873070 21.5399826689644556
 25.1647972903320252 22.1278744362873070 24.4249783362055695
 25.1647972903320252 22.1278744362873070 27.3099740034466834
 25.1647972903320252 22.1278744362873070 30.1949696706877972
 25.1647972903320252 22.1278744362873070 33.0799653379289111
 25.1647972903320252 22.1278744362873070 35.9649610051700250
 25.1647972903320252 22.1278744362873070 38.8499566724111389
 28.1019361410892827 22.1278744362873070 12.8849956672411139
 28.1019361410892827 22.1278744362873070 15.7699913344822278
 28.1019361410892827 22.1278744362873070 18.6549870017233417
 28.1019361410892827 22.1278744362873070 21.5399826689644556
 28.1019361410892827 22.1278744362873070 24.4249783362055695
 28.1019361410892827 22.1278744362873070 27.3099740034466834
 28.1019361410892827 22.1278744362873070 30.1949696706877972
 28.1019361410892827 22.1278744362873070 33.0799653379289111
 28.1019361410892827 22.1278744362873070 35.9649610051700250
 28.1019361410892827 22.1278744362873070 38.8499566724111389
 31.0390749918465367 22.1278744362873070 12.8849956672411139
 31.0390749918465367 22.1278744362873070 15.7699913344822278
 31.0390749918465367 22.1278744362873070 18.6549870017233417
 31.0390749918465367 22.1278744362873070 21.5399826689644556
 31.0390749918465367 22.1278744362873070 24.4249783362055695
 31.0390749918465367 22.1278744362873070 27.3099740034466834
 31.0390749918465367 22.1278744362873070 30.1949696706877972
 31.0390749918465367 22.1278744362873070 33.0799653379289111
 31.0390749918465367 22.1278744362873070 35.9649610051700250
 31.0390749918465367 22.1278744362873070 38.8499566724111389
 31.9467008115694320 24.9212594795636520 12.8849956672411139
 31.9467008115694320 24.9212594795636520 15.7699913344822278
 31.9467008115694320 24.9212594795636520 18.6549870017233417
 31.9467008115694320 24.9212594795636520 21.5399826689644556
 31.9467008115694320 24.9212594795636520 24.4249783362055695
 31.9467008115694320 24.9212594795636520 27.3099740034466834
 31.9467008115694320 24.9212594795636520 30.1949696706877972
 31.9467008115694320 24.9212594795636520 33.0799653379289111
 31.9467008115694320 24.9212594795636520 35.9649610051700250
 31.9467008115694320 24.9212594795636520 38.8499566724111389
 35.2305218763938512 28.4867171600684621 14.3274935008616708
 35.2305218763938512 28.4867171600684621 17.2124891681027847
 35.2305218763938512 28.4867171600684621 20.0974848353438986
 35.2305218763938512 28.4867171600684621 22.9824805025850125
 35.2305218763938512 28.4867171600684621 25.8674761698261264
 35.2305218763938512 28.4867171600684621 28.7524718370672403
 35.2305218763938512 28.4867171600684621 31.6374675043083542
 35.2305218763938512 28.4867171600684621 34.5224631715494681
 35.2305218763938512 28.4867171600684621 37.4074588387905820
 32.8543266312923308 30.2131240604788402 14.3274935008616708
 32.8543266312923308 30.2131240604788402 17.2124891681027847
 32.8543266312923308 30.2131240604788402 20.0974848353438986
 32.8543266312923308 30.2131240604788402 22.9824805025850125
 32.8543266312923308 30.2131240604788402 25.8674761698261264
 32.8543266312923308 30.2131240604788402 28.7524718370672403
 32.8543266312923308 30.2131240604788402 31.6374675043083542
 32.8543266312923308 30.2131240604788402 34.5224631715494681
 32.8543266312923308 30.2131240604788402 37.4074588387905820
 30.4781313861908068 31.9395309608892184 14.3274935008616708
 30.4781313861908068 31.9395309608892184 17.2124891681027847
 30.4781313861908068 31.9395309608892184 20.0974848353438986
 30.4781313861908068 31.9395309608892184 22.9824805025850125
 30.4781313861908068 31.9395309608892184 25.8674761698261264
 30.4781313861908068 31.9395309608892184 28.7524718370672403
 30.4781313861908068 31.9395309608892184 31.6374675043083542
 30.4781313861908068 31.9395309608892184 34.5224631715494681
 30.4781313861908068 31.9395309608892184 37.4074588387905820
 28.1019361410892827 33.6659378612995965 14.3274935008616708
 28.1019361410892827 33.6659378612995965 17.2124891681027847
 28.1019361410892827 33.6659378612995965 20.0974848353438986
 28.1019361410892827 33.6659378612995965 22.9824805025850125
 28.1019361410892827 33.6659378612995965 25.8674761698261264
 28.1019361410892827 33.6659378612995965 28.7524718370672403
 28.1019361410892827 33.6659378612995965 31.6374675043083542
 28.1019361410892827 33.6659378612995965 34.5224631715494681
 28.1019361410892827 33.6659378612995965 37.4074588387905820
 25.7257408959877623 31.9395309608892219 14.3274935008616708
 25.7257408959877623 31.9395309608892219 17.2124891681027847
 25.7257408959877623 31.9395309608892219 20.0974848353438986
 25.7257408959877623 31.9395309608892219 22.9824805025850125
 25.7257408959877623 31.9395309608892219 25.8674761698261264
 25.7257408959877623 31.9395309608892219 28.7524718370672403
 25.7257408959877623 31.9395309608892219 31.6374675043083542
 25.7257408959877623 31.9395309608892219 34.5224631715494681
 25.7257408959877623 31.9395309608892219 37.4074588387905820
 23.3495456508862382 30.2131240604788402 14.3274935008616708
 23.3495456508862382 30.2131240604788402 17.2124891681027847
 23.3495456508862382 30.2131240604788402 20.0974848353438986
 23.3495456508862382 30.2131240604788402 22.9824805025850125
 23.3495456508862382 30.2131240604788402 25.8674761698261264
 23.3495456508862382 30.2131240604788402 28.7524718370672403
 23.3495456508862382 30.2131240604788402 31.6374675043083542
 23.3495456508862382 30.2131240604788402 34.5224631715494681
 23.3495456508862382 30.2131240604788402 37.4074588387905820
 20.9733504057847142 28.4867171600684621 14.3274935008616708
 20.9733504057847142 28.4867171600684621 17.2124891681027847
 20.9733504057847142 28.4867171600684621 20.0974848353438986
 20.9733504057847142 28.4867171600684621 22.9824805025850125
 20.9733504057847142 28.4867171600684621 25.8674761698261264
 20.9733504057847142 28.4867171600684621 28.7524718370672403
 20.9733504057847142 28.4867171600684621 31.6374675043083542
 20.9733504057847142 28.4867171600684621 34.5224631715494681
 20.9733504057847142 28.4867171600684621 37.4074588387905820
 21.8809762255076095 25.6933321167921171 14.3274935008616708
 21.8809762255076095 25.6933321167921171 17.2124891681027847
 21.8809762255076095 25.6933321167921171 20.0974848353438986
 21.8809762255076095 25.6933321167921171 22.9824805025850125
 21.8809762255076095 25.6933321167921171 25.8674761698261264
 21.8809762255076095 25.6933321167921171 28.7524718370672403
 21.8809762255076095 25.6933321167921171 31.6374675043083542
 21.8809762255076095 25.6933321167921171 34.5224631715494681
 21.8809762255076095 25.6933321167921171 37.4074588387905820
 22.7886020452305047 22.8999470735157686 14.3274935008616708
 22.7886020452305047 22.8999470735157686 17.2124891681027847
 22.7886020452305047 22.8999470735157686 20.0974848353438986
 22.7886020452305047 22.8999470735157686 22.9824805025850125
 22.7886020452305047 22.8999470735157686 25.8674761698261264
 22.7886020452305047 22.8999470735157686 28.7524718370672403
 22.7886020452305047 22.8999470735157686 31.6374675043083542
 22.7886020452305047 22.8999470735157686 34.5224631715494681
 22.7886020452305047 22.8999470735157686 37.4074588387905820
 23.6962278649533999 20.1065620302394237 14.3274935008616708
 23.6962278649533999 20.1065620302394237 17.2124891681027847
 23.6962278649533999 20.1065620302394237 20.0974848353438986
 23.6962278649533999 20.1065620302394237 22.9824805025850125
 23.6962278649533999 20.1065620302394237 25.8674761698261264
 23.6962278649533999 20.1065620302394237 28.7524718370672403
 23.6962278649533999 20.1065620302394237 31.6374675043083542
 23.6962278649533999 20.1065620302394237 34.5224631715494681
 23.6962278649533999 20.1065620302394237 37.4074588387905820
 26.6333667157106539 20.1065620302394237 14.3274935008616708
 26.6333667157106539 20.1065620302394237 17.2124891681027847
 26.6333667157106539 20.1065620302394237 20.0974848353438986
 26.6333667157106539 20.1065620302394237 22.9824805025850125
 26.6333667157106539 20.1065620302394237 25.8674761698261264
 26.6333667157106539 20.1065620302394237 28.7524718370672403
 26.6333667157106539 20.1065620302394237 31.6374675043083542
 26.6333667157106539 20.1065620302394237 34.5224631715494681
 26.6333667157106539 20.1065620302394237 37.4074588387905820
 29.5705055664679080 20.1065620302394237 14.3274935008616708
 29.5705055664679080 20.1065620302394237 17.2124891681027847
 29.5705055664679080 20.1065620302394237 20.0974848353438986
 29.5705055664679080 20.1065620302394237 22.9824805025850125
 29.5705055664679080 20.1065620302394237 25.8674761698261264
 29.5705055664679080 20.1065620302394237 28.7524718370672403
 29.5705055664679080 20.1065620302394237 31.6374675043083542
 29.5705055664679080 20.1065620302394237 34.5224631715494681
 29.5705055664679080 20.1065620302394237 37.4074588387905820
 32.5076444172251655 20.1065620302394201 14.3274935008616708
 32.5076444172251655 20.1065620302394201 17.2124891681027847
 32.5076444172251655 20.1065620302394201 20.0974848353438986
 32.5076444172251655 20.1065620302394201 22.9824805025850125
 32.5076444172251655 20.1065620302394201 25.8674761698261264
 32.5076444172251655 20.1065620302394201 28.7524718370672403
 32.5076444172251655 20.1065620302394201 31.6374675043083542
 32.5076444172251655 20.1065620302394201 34.5224631715494681
 32.5076444172251655 20.1065620302394201 37.4074588387905820
 33.4152702369480608 22.8999470735157686 14.3274935008616708
 33.4152702369480608 22.8999470735157686 17.2124891681027847
 33.4152702369480608 22.8999470735157686 20.0974848353438986
 33.4152702369480608 22.8999470735157686 22.9824805025850125
 33.4152702369480608 22.8999470735157686 25.8674761698261264
 33.4152702369480608 22.8999470735157686 28.7524718370672403
 33.4152702369480608 22.8999470735157686 31.6374675043083542
 33.4152702369480608 22.8999470735157686 34.5224631715494681
 33.4152702369480608 22.8999470735157686 37.4074588387905820
 34.3228960566709560 25.6933321167921136 14.3274935008616708
 34.3228960566709560 25.6933321167921136 17.2124891681027847
 34.3228960566709560 25.6933321167921136 20.0974848353438986
 34.3228960566709560 25.6933321167921136 22.9824805025850125
 34.3228960566709560 25.6933321167921136 25.8674761698261264
 34.3228960566709560 25.6933321167921136 28.7524718370672403
 34.3228960566709560 25.6933321167921136 31.6374675043083542
 34.3228960566709560 25.6933321167921136 34.5224631715494681
 34.3228960566709560 25.6933321167921136 37.4074588387905820
 37.6067171214953717 29.2587897972969238 15.7699913344822278
 37.6067171214953717 29.2587897972969238 18.6549870017233417
 37.6067171214953717 29.2587897972969238 21.5399826689644556
 37.6067171214953717 29.2587897972969238 24.4249783362055695
 37.6067171214953717 29.2587897972969238 27.3099740034466834
 37.6067171214953717 29.2587897972969238 30.1949696706877972
 37.6067171214953717 29.2587897972969238 33.0799653379289111
 37.6067171214953717 29.2587897972969238 35.9649610051700250
 35.2305218763938512 30.9851966977073019 15.7699913344822278
 35.2305218763938512 30.9851966977073019 18.6549870017233417
 35.2305218763938512 30.9851966977073019 21.5399826689644556
 35.2305218763938512 30.9851966977073019 24.4249783362055695
 35.2305218763938512 30.9851966977073019 27.3099740034466834
 35.2305218763938512 30.9851966977073019 30.1949696706877972
 35.2305218763938512 30.9851966977073019 33.0799653379289111
 35.2305218763938512 30.9851966977073019 35.9649610051700250
 32.8543266312923308 32.7116035981176836 15.7699913344822278
 32.8543266312923308 32.7116035981176836 18.6549870017233417
 32.8543266312923308 32.7116035981176836 21.5399826689644556
 32.8543266312923308 32.7116035981176836 24.4249783362055695
 32.8543266312923308 32.7116035981176836 27.3099740034466834
 32.8543266312923308 32.7116035981176836 30.1949696706877972
 32.8543266312923308 32.7116035981176836 33.0799653379289111
 32.8543266312923308 32.7116035981176836 35.9649610051700250
 30.4781313861908068 34.4380104985280582 15.7699913344822278
 30.4781313861908068 34.4380104985280582 18.6549870017233417
 30.4781313861908068 34.4380104985280582 21.5399826689644556
 30.4781313861908068 34.4380104985280582 24.4249783362055695
 30.4781313861908068 34.4380104985280582 27.3099740034466834
 30.4781313861908068 34.4380104985280582 30.1949696706877972
 30.4781313861908068 34.4380104985280582 33.0799653379289111
 30.4781313861908068 34.4380104985280582 35.9649610051700250
 28.1019361410892827 36.1644173989384399 15.7699913344822278
 28.1019361410892827 36.1644173989384399 18.6549870017233417
 28.1019361410892827 36.1644173989384399 21.5399826689644556
 28.1019361410892827 36.1644173989384399 24.4249783362055695
 28.1019361410892827 36.1644173989384399 27.3099740034466834
 28.1019361410892827 36.1644173989384399 30.1949696706877972
 28.1019361410892827 36.1644173989384399 33.0799653379289111
 28.1019361410892827 36.1644173989384399 35.9649610051700250
 25.7257408959877623 34.4380104985280582 15.7699913344822278
 25.7257408959877623 34.4380104985280582 18.6549870017233417
 25.7257408959877623 34.4380104985280582 21.5399826689644556
 25.7257408959877623 34.4380104985280582 24.4249783362055695
 25.7257408959877623 34.4380104985280582 27.3099740034466834
 25.7257408959877623 34.4380104985280582 30.1949696706877972
 25.7257408959877623 34.4380104985280582 33.0799653379289111
 25.7257408959877623 34.4380104985280582 35.9649610051700250
 23.3495456508862382 32.7116035981176836 15.7699913344822278
 23.3495456508862382 32.7116035981176836 18.6549870017233417
 23.3495456508862382 32.7116035981176836 21.5399826689644556
 23.3495456508862382 32.7116035981176836 24.4249783362055695
 23.3495456508862382 32.7116035981176836 27.3099740034466834
 23.3495456508862382 32.7116035981176836 30.1949696706877972
 23.3495456508862382 32.7116035981176836 33.0799653379289111
 23.3495456508862382 32.7116035981176836 35.9649610051700250
 20.9733504057847142 30.9851966977073054 15.7699913344822278
 20.9733504057847142 30.9851966977073054 18.6549870017233417
 20.9733504057847142 30.9851966977073054 21.5399826689644556
 20.9733504057847142 30.9851966977073054 24.4249783362055695
 20.9733504057847142 30.9851966977073054 27.3099740034466834
 20.9733504057847142 30.9851966977073054 30.1949696706877972
 20.9733504057847142 30.9851966977073054 33.0799653379289111
 20.9733504057847142 30.9851966977073054 35.9649610051700250
 18.5971551606831937 29.2587897972969273 15.7699913344822278
 18.5971551606831937 29.2587897972969273 18.6549870017233417
 18.5971551606831937 29.2587897972969273 21.5399826689644556
 18.5971551606831937 29.2587897972969273 24.4249783362055695
 18.5971551606831937 29.2587897972969273 27.3099740034466834
 18.5971551606831937 29.2587897972969273 30.1949696706877972
 18.5971551606831937 29.2587897972969273 33.0799653379289111
 18.5971551606831937 29.2587897972969273 35.9649610051700250
 19.5047809804060854 26.4654047540205788 15.7699913344822278
 19.5047809804060854 26.4654047540205788 18.6549870017233417
 19.5047809804060854 26.4654047540205788 21.5399826689644556
 19.5047809804060854 26.4654047540205788 24.4249783362055695
 19.5047809804060854 26.4654047540205788 27.3099740034466834
 19.5047809804060854 26.4654047540205788 30.1949696706877972
 19.5047809804060854 26.4654047540205788 33.0799653379289111
 19.5047809804060854 26.4654047540205788 35.9649610051700250
 20.4124068001289807 23.6720197107442338 15.7699913344822278
 20.4124068001289807 23.6720197107442338 18.6549870017233417
 20.4124068001289807 23.6720197107442338 21.5399826689644556
 20.4124068001289807 23.6720197107442338 24.4249783362055695
 20.4124068001289807 23.6720197107442338 27.3099740034466834
 20.4124068001289807 23.6720197107442338 30.1949696706877972
 20.4124068001289807 23.6720197107442338 33.0799653379289111
 20.4124068001289807 23.6720197107442338 35.9649610051700250
 21.3200326198518759 20.8786346674678853 15.7699913344822278
 21.3200326198518759 20.8786346674678853 18.6549870017233417
 21.3200326198518759 20.8786346674678853 21.5399826689644556
 21.3200326198518759 20.8786346674678853 24.4249783362055695
 21.3200326198518759 20.8786346674678853 27.3099740034466834
 21.3200326198518759 20.8786346674678853 30.1949696706877972
 21.3200326198518759 20.8786346674678853 33.0799653379289111
 21.3200326198518759 20.8786346674678853 35.9649610051700250
 22.2276584395747676 18.0852496241915404 15.7699913344822278
 22.2276584395747676 18.0852496241915404 18.6549870017233417
 22.2276584395747676 18.0852496241915404 21.5399826689644556
 22.2276584395747676 18.0852496241915404 24.4249783362055695
 22.2276584395747676 18.0852496241915404 27.3099740034466834
 22.2276584395747676 18.0852496241915404 30.1949696706877972
 22.2276584395747676 18.0852496241915404 33.0799653379289111
 22.2276584395747676 18.0852496241915404 35.9649610051700250
 25.1647972903320252 18.0852496241915368 15.7699913344822278
 25.1647972903320252 18.0852496241915368 18.6549870017233417
 25.1647972903320252 18.0852496241915368 21.5399826689644556
 25.1647972903320252 18.0852496241915368 24.4249783362055695
 25.1647972903320252 18.0852496241915368 27.3099740034466834
 25.1647972903320252 18.0852496241915368 30.1949696706877972
 25.1647972903320252 18.0852496241915368 33.0799653379289111
 25.1647972903320252 18.0852496241915368 35.9649610051700250
 28.1019361410892827 18.0852496241915368 15.7699913344822278
 28.1019361410892827 18.0852496241915368 18.6549870017233417
 28.1019361410892827 18.0852496241915368 21.5399826689644556
 28.1019361410892827 18.0852496241915368 24.4249783362055695
 28.1019361410892827 18.0852496241915368 27.3099740034466834
 28.1019361410892827 18.0852496241915368 30.1949696706877972
 28.1019361410892827 18.0852496241915368 33.0799653379289111
 28.1019361410892827 18.0852496241915368 35.9649610051700250
 31.0390749918465367 18.0852496241915368 15.7699913344822278
 31.0390749918465367 18.0852496241915368 18.6549870017233417
 31.0390749918465367 18.0852496241915368 21.5399826689644556
 31.0390749918465367 18.0852496241915368 24.4249783362055695
 31.0390749918465367 18.0852496241915368 27.3099740034466834
 31.0390749918465367 18.0852496241915368 30.1949696706877972
 31.0390749918465367 18.0852496241915368 33.0799653379289111
 31.0390749918465367 18.0852496241915368 35.9649610051700250
 33.9762138426037907 18.0852496241915368 15.7699913344822278
 33.9762138426037907 18.0852496241915368 18.6549870017233417
 33.9762138426037907 18.0852496241915368 21.5399826689644556
 33.9762138426037907 18.0852496241915368 24.4249783362055695
 33.9762138426037907 18.0852496241915368 27.3099740034466834
 33.9762138426037907 18.0852496241915368 30.1949696706877972
 33.9762138426037907 18.0852496241915368 33.0799653379289111
 33.9762138426037907 18.0852496241915368 35.9649610051700250
 34.8838396623266860 20.8786346674678853 15.7699913344822278
 34.8838396623266860 20.8786346674678853 18.6549870017233417
 34.8838396623266860 20.8786346674678853 21.5399826689644556
 34.8838396623266860 20.8786346674678853 24.4249783362055695
 34.8838396623266860 20.8786346674678853 27.3099740034466834
 34.8838396623266860 20.8786346674678853 30.1949696706877972
 34.8838396623266860 20.8786346674678853 33.0799653379289111
 34.8838396623266860 20.8786346674678853 35.9649610051700250
 35.7914654820495812 23.6720197107442303 15.7699913344822278
 35.7914654820495812 23.6720197107442303 18.6549870017233417
 35.7914654820495812 23.6720197107442303 21.5399826689644556
 35.7914654820495812 23.6720197107442303 24.4249783362055695
 35.7914654820495812 23.6720197107442303 27.3099740034466834
 35.7914654820495812 23.6720197107442303 30.1949696706877972
 35.7914654820495812 23.6720197107442303 33.0799653379289111
 35.7914654820495812 23.6720197107442303 35.9649610051700250
 36.6990913017724765 26.4654047540205752 15.7699913344822278
 36.6990913017724765 26.4654047540205752 18.6549870017233417
 36.6990913017724765 26.4654047540205752 21.5399826689644556
 36.6990913017724765 26.4654047540205752 24.4249783362055695
 36.6990913017724765 26.4654047540205752 27.3099740034466834
 36.6990913017724765 26.4654047540205752 30.1949696706877972
 36.6990913017724765 26.4654047540205752 33.0799653379289111
 36.6990913017724765 26.4654047540205752 35.9649610051700250
 39.9829123665968922 30.0308624345253854 17.2124891681027847
 39.9829123665968922 30.0308624345253854 20.0974848353438986
 39.9829123665968922 30.0308624345253854 22.9824805025850125
 39.9829123665968922 30.0308624345253854 25.8674761698261264
 39.9829123665968922 30.0308624345253854 28.7524718370672403
 39.9829123665968922 30.0308624345253854 31.6374675043083542
 39.9829123665968922 30.0308624345253854 34.5224631715494681
 37.6067171214953717 31.7572693349357635 17.2124891681027847
 37.6067171214953717 31.7572693349357635 20.0974848353438986
 37.6067171214953717 31.7572693349357635 22.9824805025850125
 37.6067171214953717 31.7572693349357635 25.8674761698261264
 37.6067171214953717 31.7572693349357635 28.7524718370672403
 37.6067171214953717 31.7572693349357635 31.6374675043083542
 37.6067171214953717 31.7572693349357635 34.5224631715494681
 35.2305218763938512 33.4836762353461452 17.2124891681027847
 35.2305218763938512 33.4836762353461452 20.0974848353438986
 35.2305218763938512 33.4836762353461452 22.9824805025850125
 35.2305218763938512 33.4836762353461452 25.8674761698261264
 35.2305218763938512 33.4836762353461452 28.7524718370672403
 35.2305218763938512 33.4836762353461452 31.6374675043083542
 35.2305218763938512 33.4836762353461452 34.5224631715494681
 32.8543266312923308 35.2100831357565198 17.2124891681027847
 32.8543266312923308 35.2100831357565198 20.0974848353438986
 32.8543266312923308 35.2100831357565198 22.9824805025850125
 32.8543266312923308 35.2100831357565198 25.8674761698261264