Au 
 1.0000000000000000
    62.0781499836930806    0.0000000000000000    0.0000000000000000
     0.0000000000000000   60.0186987356361215    0.0000000000000000
     0.0000000000000000    0.0000000000000000   48.8499566724111389
 Au 
 1041
Cartesian
 31.0390749918465403 30.2131240604788438 10.0000000000000000
 31.0390749918465403 30.2131240604788438 12.8849956672411139
 31.0390749918465403 30.2131240604788438 15.7699913344822278
 31.0390749918465403 30.2131240604788438 18.6549870017233417
 31.0390749918465403 30.2131240604788438 21.5399826689644556
 31.0390749918465403 30.2131240604788438 24.4249783362055695
 31.0390749918465403 30.2131240604788438 27.3099740034466834
 31.0390749918465403 30.2131240604788438 30.1949696706877972
 31.0390749918465403 30.2131240604788438 33.0799653379289111
 31.0390749918465403 30.2131240604788438 35.9649610051700250
 31.0390749918465403 30.2131240604788438 38.8499566724111389
 33.4152702369480608 30.9851966977073054 11.4424978336205569
 33.4152702369480608 30.9851966977073054 14.3274935008616708
 33.4152702369480608 30.9851966977073054 17.2124891681027847
 33.4152702369480608 30.9851966977073054 20.0974848353438986
 33.4152702369480608 30.9851966977073054 22.9824805025850125
 33.4152702369480608 30.9851966977073054 25.8674761698261264
 33.4152702369480608 30.9851966977073054 28.7524718370672403
 33.4152702369480608 30.9851966977073054 31.6374675043083542
 33.4152702369480608 30.9851966977073054 34.5224631715494681
 33.4152702369480608 30.9851966977073054 37.4074588387905820
 31.0390749918465403 32.7116035981176836 11.4424978336205569
 31.0390749918465403 32.7116035981176836 14.3274935008616708
 31.0390749918465403 32.7116035981176836 17.2124891681027847
 31.0390749918465403 32.7116035981176836 20.0974848353438986
 31.0390749918465403 32.7116035981176836 22.9824805025850125
 31.0390749918465403 32.7116035981176836 25.8674761698261264
 31.0390749918465403 32.7116035981176836 28.7524718370672403
 31.0390749918465403 32.7116035981176836 31.6374675043083542
 31.0390749918465403 32.7116035981176836 34.5224631715494681
 31.0390749918465403 32.7116035981176836 37.4074588387905820
 28.6628797467450163 30.9851966977073054 11.4424978336205569
 28.6628797467450163 30.9851966977073054 14.3274935008616708
 28.6628797467450163 30.9851966977073054 17.2124891681027847
 28.6628797467450163 30.9851966977073054 20.0974848353438986
 28.6628797467450163 30.9851966977073054 22.9824805025850125
 28.6628797467450163 30.9851966977073054 25.8674761698261264
 28.6628797467450163 30.9851966977073054 28.7524718370672403
 28.6628797467450163 30.9851966977073054 31.6374675043083542
 28.6628797467450163 30.9851966977073054 34.5224631715494681
 28.6628797467450163 30.9851966977073054 37.4074588387905820
 29.5705055664679115 28.1918116544309605 11.4424978336205569
 29.5705055664679115 28.1918116544309605 14.3274935008616708
 29.5705055664679115 28.1918116544309605 17.2124891681027847
 29.5705055664679115 28.1918116544309605 20.0974848353438986
 29.5705055664679115 28.1918116544309605 22.9824805025850125
 29.5705055664679115 28.1918116544309605 25.8674761698261264
 29.5705055664679115 28.1918116544309605 28.7524718370672403
 29.5705055664679115 28.1918116544309605 31.6374675043083542
 29.5705055664679115 28.1918116544309605 34.5224631715494681
 29.5705055664679115 28.1918116544309605 37.4074588387905820
 32.5076444172251655 28.1918116544309605 11.4424978336205569
 32.5076444172251655 28.1918116544309605 14.3274935008616708
 32.5076444172251655 28.1918116544309605 17.2124891681027847
 32.5076444172251655 28.1918116544309605 20.0974848353438986
 32.5076444172251655 28.1918116544309605 22.9824805025850125
 32.5076444172251655 28.1918116544309605 25.8674761698261264
 32.5076444172251655 28.1918116544309605 28.7524718370672403
 32.5076444172251655 28.1918116544309605 31.6374675043083542
 32.5076444172251655 28.1918116544309605 34.5224631715494681
 32.5076444172251655 28.1918116544309605 37.4074588387905820
 35.7914654820495883 31.7572693349357706 12.8849956672411139
 35.7914654820495883 31.7572693349357706 15.7699913344822278
 35.7914654820495883 31.7572693349357706 18.6549870017233417
 35.7914654820495883 31.7572693349357706 21.5399826689644556
 35.7914654820495883 31.7572693349357706 24.4249783362055695
 35.7914654820495883 31.7572693349357706 27.3099740034466834
 35.7914654820495883 31.7572693349357706 30.1949696706877972
 35.7914654820495883 31.7572693349357706 33.0799653379289111
 35.7914654820495883 31.7572693349357706 35.9649610051700250
 33.4152702369480608 33.4836762353461452 12.8849956672411139
 33.4152702369480608 33.4836762353461452 15.7699913344822278
 33.4152702369480608 33.4836762353461452 18.6549870017233417
 33.4152702369480608 33.4836762353461452 21.5399826689644556
 33.4152702369480608 33.4836762353461452 24.4249783362055695
 33.4152702369480608 33.4836762353461452 27.3099740034466834
 33.4152702369480608 33.4836762353461452 30.1949696706877972
 33.4152702369480608 33.4836762353461452 33.0799653379289111
 33.4152702369480608 33.4836762353461452 35.9649610051700250
 31.0390749918465403 35.2100831357565269 12.8849956672411139
 31.0390749918465403 35.2100831357565269 15.7699913344822278
 31.0390749918465403 35.2100831357565269 18.6549870017233417
 31.0390749918465403 35.2100831357565269 21.5399826689644556
 31.0390749918465403 35.2100831357565269 24.4249783362055695
 31.0390749918465403 35.2100831357565269 27.3099740034466834
 31.0390749918465403 35.2100831357565269 30.1949696706877972
 31.0390749918465403 35.2100831357565269 33.0799653379289111
 31.0390749918465403 35.2100831357565269 35.9649610051700250
 28.6628797467450163 33.4836762353461523 12.8849956672411139
 28.6628797467450163 33.4836762353461523 15.7699913344822278
 28.6628797467450163 33.4836762353461523 18.6549870017233417
 28.6628797467450163 33.4836762353461523 21.5399826689644556
 28.6628797467450163 33.4836762353461523 24.4249783362055695
 28.6628797467450163 33.4836762353461523 27.3099740034466834
 28.6628797467450163 33.4836762353461523 30.1949696706877972
 28.6628797467450163 33.4836762353461523 33.0799653379289111
 28.6628797467450163 33.4836762353461523 35.9649610051700250
 26.2866845016434958 31.7572693349357706 12.8849956672411139
 26.2866845016434958 31.7572693349357706 15.7699913344822278
 26.2866845016434958 31.7572693349357706 18.6549870017233417
 26.2866845016434958 31.7572693349357706 21.5399826689644556
 26.2866845016434958 31.7572693349357706 24.4249783362055695
 26.2866845016434958 31.7572693349357706 27.3099740034466834
 26.2866845016434958 31.7572693349357706 30.1949696706877972
 26.2866845016434958 31.7572693349357706 33.0799653379289111
 26.2866845016434958 31.7572693349357706 35.9649610051700250
 27.1943103213663875 28.9638842916594221 12.8849956672411139
 27.1943103213663875 28.9638842916594221 15.7699913344822278
 27.1943103213663875 28.9638842916594221 18.6549870017233417
 27.1943103213663875 28.9638842916594221 21.5399826689644556
 27.1943103213663875 28.9638842916594221 24.4249783362055695
 27.1943103213663875 28.9638842916594221 27.3099740034466834
 27.1943103213663875 28.9638842916594221 30.1949696706877972
 27.1943103213663875 28.9638842916594221 33.0799653379289111
 27.1943103213663875 28.9638842916594221 35.9649610051700250
 28.1019361410892827 26.1704992483830772 12.8849956672411139
 28.1019361410892827 26.1704992483830772 15.7699913344822278
 28.1019361410892827 26.1704992483830772 18.6549870017233417
 28.1019361410892827 26.1704992483830772 21.5399826689644556
 28.1019361410892827 26.1704992483830772 24.4249783362055695
 28.1019361410892827 26.1704992483830772 27.3099740034466834
 28.1019361410892827 26.1704992483830772 30.1949696706877972
 28.1019361410892827 26.1704992483830772 33.0799653379289111
 28.1019361410892827 26.1704992483830772 35.9649610051700250
 31.0390749918465403 26.1704992483830736 12.8849956672411139
 31.0390749918465403 26.1704992483830736 15.7699913344822278
 31.0390749918465403 26.1704992483830736 18.6549870017233417
 31.0390749918465403 26.1704992483830736 21.5399826689644556
 31.0390749918465403 26.1704992483830736 24.4249783362055695
 31.0390749918465403 26.1704992483830736 27.3099740034466834
 31.0390749918465403 26.1704992483830736 30.1949696706877972
 31.0390749918465403 26.1704992483830736 33.0799653379289111
 31.0390749918465403 26.1704992483830736 35.9649610051700250
 33.9762138426037978 26.1704992483830736 12.8849956672411139
 33.9762138426037978 26.1704992483830736 15.7699913344822278
 33.9762138426037978 26.1704992483830736 18.6549870017233417
 33.9762138426037978 26.1704992483830736 21.5399826689644556
 33.9762138426037978 26.1704992483830736 24.4249783362055695
 33.9762138426037978 26.1704992483830736 27.3099740034466834
 33.9762138426037978 26.1704992483830736 30.1949696706877972
 33.9762138426037978 26.1704992483830736 33.0799653379289111
 33.9762138426037978 26.1704992483830736 35.9649610051700250
 34.8838396623266931 28.9638842916594221 12.8849956672411139
 34.8838396623266931 28.9638842916594221 15.7699913344822278
 34.8838396623266931 28.9638842916594221 18.6549870017233417
 34.8838396623266931 28.9638842916594221 21.5399826689644556
 34.8838396623266931 28.9638842916594221 24.4249783362055695
 34.8838396623266931 28.9638842916594221 27.3099740034466834
 34.8838396623266931 28.9638842916594221 30.1949696706877972
 34.8838396623266931 28.9638842916594221 33.0799653379289111
 34.8838396623266931 28.9638842916594221 35.9649610051700250
 38.1676607271511088 32.5293419721642323 14.3274935008616708
 38.1676607271511088 32.5293419721642323 17.2124891681027847
 38.1676607271511088 32.5293419721642323 20.0974848353438986
 38.1676607271511088 32.5293419721642323 22.9824805025850125
 38.1676607271511088 32.5293419721642323 25.8674761698261264
 38.1676607271511088 32.5293419721642323 28.7524718370672403
 38.1676607271511088 32.5293419721642323 31.6374675043083542
 38.1676607271511088 32.5293419721642323 34.5224631715494681
 35.7914654820495883 34.2557488725746140 14.3274935008616708
 35.7914654820495883 34.2557488725746140 17.2124891681027847
 35.7914654820495883 34.2557488725746140 20.0974848353438986
 35.7914654820495883 34.2557488725746140 22.9824805025850125
 35.7914654820495883 34.2557488725746140 25.8674761698261264
 35.7914654820495883 34.2557488725746140 28.7524718370672403
 35.7914654820495883 34.2557488725746140 31.6374675043083542
 35.7914654820495883 34.2557488725746140 34.5224631715494681
 33.4152702369480608 35.9821557729849886 14.3274935008616708
 33.4152702369480608 35.9821557729849886 17.2124891681027847
 33.4152702369480608 35.9821557729849886 20.0974848353438986
 33.4152702369480608 35.9821557729849886 22.9824805025850125
 33.4152702369480608 35.9821557729849886 25.8674761698261264
 33.4152702369480608 35.9821557729849886 28.7524718370672403
 33.4152702369480608 35.9821557729849886 31.6374675043083542
 33.4152702369480608 35.9821557729849886 34.5224631715494681
 31.0390749918465403 37.7085626733953703 14.3274935008616708
 31.0390749918465403 37.7085626733953703 17.2124891681027847
 31.0390749918465403 37.7085626733953703 20.0974848353438986
 31.0390749918465403 37.7085626733953703 22.9824805025850125
 31.0390749918465403 37.7085626733953703 25.8674761698261264
 31.0390749918465403 37.7085626733953703 28.7524718370672403
 31.0390749918465403 37.7085626733953703 31.6374675043083542
 31.0390749918465403 37.7085626733953703 34.5224631715494681
 28.6628797467450198 35.9821557729849886 14.3274935008616708
 28.6628797467450198 35.9821557729849886 17.2124891681027847
 28.6628797467450198 35.9821557729849886 20.0974848353438986
 28.6628797467450198 35.9821557729849886 22.9824805025850125
 28.6628797467450198 35.9821557729849886 25.8674761698261264
 28.6628797467450198 35.9821557729849886 28.7524718370672403
 28.6628797467450198 35.9821557729849886 31.6374675043083542
 28.6628797467450198 35.9821557729849886 34.5224631715494681
 26.2866845016434958 34.2557488725746140 14.3274935008616708
 26.2866845016434958 34.2557488725746140 17.2124891681027847
 26.2866845016434958 34.2557488725746140 20.0974848353438986
 26.2866845016434958 34.2557488725746140 22.9824805025850125
 26.2866845016434958 34.2557488725746140 25.8674761698261264
 26.2866845016434958 34.2557488725746140 28.7524718370672403
 26.2866845016434958 34.2557488725746140 31.6374675043083542
 26.2866845016434958 34.2557488725746140 34.5224631715494681
 23.9104892565419718 32.5293419721642323 14.3274935008616708
 23.9104892565419718 32.5293419721642323 17.2124891681027847
 23.9104892565419718 32.5293419721642323 20.0974848353438986
 23.9104892565419718 32.5293419721642323 22.9824805025850125
 23.9104892565419718 32.5293419721642323 25.8674761698261264
 23.9104892565419718 32.5293419721642323 28.7524718370672403
 23.9104892565419718 32.5293419721642323 31.6374675043083542
 23.9104892565419718 32.5293419721642323 34.5224631715494681
 24.8181150762648670 29.7359569288878873 14.3274935008616708
 24.8181150762648670 29.7359569288878873 17.2124891681027847
 24.8181150762648670 29.7359569288878873 20.0974848353438986
 24.8181150762648670 29.7359569288878873 22.9824805025850125
 24.8181150762648670 29.7359569288878873 25.8674761698261264
 24.8181150762648670 29.7359569288878873 28.7524718370672403
 24.8181150762648670 29.7359569288878873 31.6374675043083542
 24.8181150762648670 29.7359569288878873 34.5224631715494681
 25.7257408959877623 26.9425718856115388 14.3274935008616708
 25.7257408959877623 26.9425718856115388 17.2124891681027847
 25.7257408959877623 26.9425718856115388 20.0974848353438986
 25.7257408959877623 26.9425718856115388 22.9824805025850125
 25.7257408959877623 26.9425718856115388 25.8674761698261264
 25.7257408959877623 26.9425718856115388 28.7524718370672403
 25.7257408959877623 26.9425718856115388 31.6374675043083542
 25.7257408959877623 26.9425718856115388 34.5224631715494681
 26.6333667157106575 24.1491868423351903 14.3274935008616708
 26.6333667157106575 24.1491868423351903 17.2124891681027847
 26.6333667157106575 24.1491868423351903 20.0974848353438986
 26.6333667157106575 24.1491868423351903 22.9824805025850125
 26.6333667157106575 24.1491868423351903 25.8674761698261264
 26.6333667157106575 24.1491868423351903 28.7524718370672403
 26.6333667157106575 24.1491868423351903 31.6374675043083542
 26.6333667157106575 24.1491868423351903 34.5224631715494681
 29.5705055664679115 24.1491868423351903 14.3274935008616708
 29.5705055664679115 24.1491868423351903 17.2124891681027847
 29.5705055664679115 24.1491868423351903 20.0974848353438986
 29.5705055664679115 24.1491868423351903 22.9824805025850125
 29.5705055664679115 24.1491868423351903 25.8674761698261264
 29.5705055664679115 24.1491868423351903 28.7524718370672403
 29.5705055664679115 24.1491868423351903 31.6374675043083542
 29.5705055664679115 24.1491868423351903 34.5224631715494681
 32.5076444172251655 24.1491868423351903 14.3274935008616708
 32.5076444172251655 24.1491868423351903 17.2124891681027847
 32.5076444172251655 24.1491868423351903 20.0974848353438986
 32.5076444172251655 24.1491868423351903 22.9824805025850125
 32.5076444172251655 24.1491868423351903 25.8674761698261264
 32.5076444172251655 24.1491868423351903 28.7524718370672403
 32.5076444172251655 24.1491868423351903 31.6374675043083542
 32.5076444172251655 24.1491868423351903 34.5224631715494681
 35.4447832679824231 24.1491868423351903 14.3274935008616708
 35.4447832679824231 24.1491868423351903 17.2124891681027847
 35.4447832679824231 24.1491868423351903 20.0974848353438986
 35.4447832679824231 24.1491868423351903 22.9824805025850125
 35.4447832679824231 24.1491868423351903 25.8674761698261264
 35.4447832679824231 24.1491868423351903 28.7524718370672403
 35.4447832679824231 24.1491868423351903 31.6374675043083542
 35.4447832679824231 24.1491868423351903 34.5224631715494681
 36.3524090877053183 26.9425718856115388 14.3274935008616708
 36.3524090877053183 26.9425718856115388 17.2124891681027847
 36.3524090877053183 26.9425718856115388 20.0974848353438986
 36.3524090877053183 26.9425718856115388 22.9824805025850125
 36.3524090877053183 26.9425718856115388 25.8674761698261264
 36.3524090877053183 26.9425718856115388 28.7524718370672403
 36.3524090877053183 26.9425718856115388 31.6374675043083542
 36.3524090877053183 26.9425718856115388 34.5224631715494681
 37.2600349074282136 29.7359569288878838 14.3274935008616708
 37.2600349074282136 29.7359569288878838 17.2124891681027847
 37.2600349074282136 29.7359569288878838 20.0974848353438986
 37.2600349074282136 29.7359569288878838 22.9824805025850125
 37.2600349074282136 29.7359569288878838 25.8674761698261264
 37.2600349074282136 29.7359569288878838 28.7524718370672403
 37.2600349074282136 29.7359569288878838 31.6374675043083542
 37.2600349074282136 29.7359569288878838 34.5224631715494681
 40.5438559722526293 33.3014146093926939 15.7699913344822278
 40.5438559722526293 33.3014146093926939 18.6549870017233417
 40.5438559722526293 33.3014146093926939 21.5399826689644556
 40.5438559722526293 33.3014146093926939 24.4249783362055695
 40.5438559722526293 33.3014146093926939 27.3099740034466834
 40.5438559722526293 33.3014146093926939 30.1949696706877972
 40.5438559722526293 33.3014146093926939 33.0799653379289111
 38.1676607271511088 35.0278215098030756 15.7699913344822278
 38.1676607271511088 35.0278215098030756 18.6549870017233417
 38.1676607271511088 35.0278215098030756 21.5399826689644556
 38.1676607271511088 35.0278215098030756 24.4249783362055695
 38.1676607271511088 35.0278215098030756 27.3099740034466834
 38.1676607271511088 35.0278215098030756 30.1949696706877972
 38.1676607271511088 35.0278215098030756 33.0799653379289111
 35.7914654820495883 36.7542284102134502 15.7699913344822278
 35.7914654820495883 36.7542284102134502 18.6549870017233417
 35.7914654820495883 36.7542284102134502 21.5399826689644556
 35.7914654820495883 36.7542284102134502 24.4249783362055695
 35.7914654820495883 36.7542284102134502 27.3099740034466834
 35.7914654820495883 36.7542284102134502 30.1949696706877972
 35.7914654820495883 36.7542284102134502 33.0799653379289111
 33.4152702369480608 38.4806353106238319 15.7699913344822278
 33.4152702369480608 38.4806353106238319 18.6549870017233417
 33.4152702369480608 38.4806353106238319 21.5399826689644556
 33.4152702369480608 38.4806353106238319 24.4249783362055695
 33.4152702369480608 38.4806353106238319 27.3099740034466834
 33.4152702369480608 38.4806353106238319 30.1949696706877972
 33.4152702369480608 38.4806353106238319 33.0799653379289111
 31.0390749918465403 40.2070422110342065 15.7699913344822278
 31.0390749918465403 40.2070422110342065 18.6549870017233417
 31.0390749918465403 40.2070422110342065 21.5399826689644556
 31.0390749918465403 40.2070422110342065 24.4249783362055695
 31.0390749918465403 40.2070422110342065 27.3099740034466834
 31.0390749918465403 40.2070422110342065 30.1949696706877972
 31.0390749918465403 40.2070422110342065 33.0799653379289111
 28.6628797467450198 38.4806353106238319 15.7699913344822278
 28.6628797467450198 38.4806353106238319 18.6549870017233417
 28.6628797467450198 38.4806353106238319 21.5399826689644556
 28.6628797467450198 38.4806353106238319 24.4249783362055695
 28.6628797467450198 38.4806353106238319 27.3099740034466834
 28.6628797467450198 38.4806353106238319 30.1949696706877972
 28.6628797467450198 38.4806353106238319 33.0799653379289111
 26.2866845016434958 36.7542284102134573 15.7699913344822278
 26.2866845016434958 36.7542284102134573 18.6549870017233417
 26.2866845016434958 36.7542284102134573 21.5399826689644556
 26.2866845016434958 36.7542284102134573 24.4249783362055695
 26.2866845016434958 36.7542284102134573 27.3099740034466834
 26.2866845016434958 36.7542284102134573 30.1949696706877972
 26.2866845016434958 36.7542284102134573 33.0799653379289111
 23.9104892565419718 35.0278215098030756 15.7699913344822278
 23.9104892565419718 35.0278215098030756 18.6549870017233417
 23.9104892565419718 35.0278215098030756 21.5399826689644556
 23.9104892565419718 35.0278215098030756 24.4249783362055695
 23.9104892565419718 35.0278215098030756 27.3099740034466834
 23.9104892565419718 35.0278215098030756 30.1949696706877972
 23.9104892565419718 35.0278215098030756 33.0799653379289111
 21.5342940114404513 33.3014146093926939 15.7699913344822278
 21.5342940114404513 33.3014146093926939 18.6549870017233417
 21.5342940114404513 33.3014146093926939 21.5399826689644556
 21.5342940114404513 33.3014146093926939 24.4249783362055695
 21.5342940114404513 33.3014146093926939 27.3099740034466834
 21.5342940114404513 33.3014146093926939 30.1949696706877972
 21.5342940114404513 33.3014146093926939 33.0799653379289111
 22.4419198311633430 30.5080295661163490 15.7699913344822278
 22.4419198311633430 30.5080295661163490 18.6549870017233417
 22.4419198311633430 30.5080295661163490 21.5399826689644556
 22.4419198311633430 30.5080295661163490 24.4249783362055695
 22.4419198311633430 30.5080295661163490 27.3099740034466834
 22.4419198311633430 30.5080295661163490 30.1949696706877972
 22.4419198311633430 30.5080295661163490 33.0799653379289111
 23.3495456508862382 27.7146445228400040 15.7699913344822278
 23.3495456508862382 27.7146445228400040 18.6549870017233417
 23.3495456508862382 27.7146445228400040 21.5399826689644556
 23.3495456508862382 27.7146445228400040 24.4249783362055695
 23.3495456508862382 27.7146445228400040 27.3099740034466834
 23.3495456508862382 27.7146445228400040 30.1949696706877972
 23.3495456508862382 27.7146445228400040 33.0799653379289111
 24.2571714706091335 24.9212594795636555 15.7699913344822278
 24.2571714706091335 24.9212594795636555 18.6549870017233417
 24.2571714706091335 24.9212594795636555 21.5399826689644556
 24.2571714706091335 24.9212594795636555 24.4249783362055695
 24.2571714706091335 24.9212594795636555 27.3099740034466834
 24.2571714706091335 24.9212594795636555 30.1949696706877972
 24.2571714706091335 24.9212594795636555 33.0799653379289111
 25.1647972903320252 22.1278744362873070 15.7699913344822278
 25.1647972903320252 22.1278744362873070 18.6549870017233417
 25.1647972903320252 22.1278744362873070 21.5399826689644556
 25.1647972903320252 22.1278744362873070 24.4249783362055695
 25.1647972903320252 22.1278744362873070 27.3099740034466834
 25.1647972903320252 22.1278744362873070 30.1949696706877972
 25.1647972903320252 22.1278744362873070 33.0799653379289111
 28.1019361410892827 22.1278744362873070 15.7699913344822278
 28.1019361410892827 22.1278744362873070 18.6549870017233417
 28.1019361410892827 22.1278744362873070 21.5399826689644556
 28.1019361410892827 22.1278744362873070 24.4249783362055695
 28.1019361410892827 22.1278744362873070 27.3099740034466834
 28.1019361410892827 22.1278744362873070 30.1949696706877972
 28.1019361410892827 22.1278744362873070 33.0799653379289111
 31.0390749918465403 22.1278744362873070 15.7699913344822278
 31.0390749918465403 22.1278744362873070 18.6549870017233417
 31.0390749918465403 22.1278744362873070 21.5399826689644556
 31.0390749918465403 22.1278744362873070 24.4249783362055695
 31.0390749918465403 22.1278744362873070 27.3099740034466834
 31.0390749918465403 22.1278744362873070 30.1949696706877972
 31.0390749918465403 22.1278744362873070 33.0799653379289111
 33.9762138426037978 22.1278744362873070 15.7699913344822278
 33.9762138426037978 22.1278744362873070 18.6549870017233417
 33.9762138426037978 22.1278744362873070 21.5399826689644556
 33.9762138426037978 22.1278744362873070 24.4249783362055695
 33.9762138426037978 22.1278744362873070 27.3099740034466834
 33.9762138426037978 22.1278744362873070 30.1949696706877972
 33.9762138426037978 22.1278744362873070 33.0799653379289111
 36.9133526933610483 22.1278744362873070 15.7699913344822278
 36.9133526933610483 22.1278744362873070 18.6549870017233417
 36.9133526933610483 22.1278744362873070 21.5399826689644556
 36.9133526933610483 22.1278744362873070 24.4249783362055695
 36.9133526933610483 22.1278744362873070 27.3099740034466834
 36.9133526933610483 22.1278744362873070 30.1949696706877972
 36.9133526933610483 22.1278744362873070 33.0799653379289111
 37.8209785130839435 24.9212594795636520 15.7699913344822278
 37.8209785130839435 24.9212594795636520 18.6549870017233417
 37.8209785130839435 24.9212594795636520 21.5399826689644556
 37.8209785130839435 24.9212594795636520 24.4249783362055695
 37.8209785130839435 24.9212594795636520 27.3099740034466834
 37.8209785130839435 24.9212594795636520 30.1949696706877972
 37.8209785130839435 24.9212594795636520 33.0799653379289111
 38.7286043328068388 27.7146445228400005 15.7699913344822278
 38.7286043328068388 27.7146445228400005 18.6549870017233417
 38.7286043328068388 27.7146445228400005 21.5399826689644556
 38.7286043328068388 27.7146445228400005 24.4249783362055695
 38.7286043328068388 27.7146445228400005 27.3099740034466834
 38.7286043328068388 27.7146445228400005 30.1949696706877972
 38.7286043328068388 27.7146445228400005 33.0799653379289111
 39.6362301525297340 30.5080295661163490 15.7699913344822278
 39.6362301525297340 30.5080295661163490 18.6549870017233417
 39.6362301525297340 30.5080295661163490 21.5399826689644556
 39.6362301525297340 30.5080295661163490 24.4249783362055695
 39.6362301525297340 30.5080295661163490 27.3099740034466834
 39.6362301525297340 30.5080295661163490 30.1949696706877972
 39.6362301525297340 30.5080295661163490 33.0799653379289111
 42.9200512173541568 34.0734872466211556 17.2124891681027847
 42.9200512173541568 34.0734872466211556 20.0974848353438986
 42.9200512173541568 34.0734872466211556 22.9824805025850125
 42.9200512173541568 34.0734872466211556 25.8674761698261264
 42.9200512173541568 34.0734872466211556 28.7524718370672403
 42.9200512173541568 34.0734872466211556 31.6374675043083542
 40.5438559722526293 35.7998941470315373 17.2124891681027847
 40.5438559722526293 35.7998941470315373 20.0974848353438986
 40.5438559722526293 35.7998941470315373 22.9824805025850125
 40.5438559722526293 35.7998941470315373 25.8674761698261264
 40.5438559722526293 35.7998941470315373 28.7524718370672403
 40.5438559722526293 35.7998941470315373 31.6374675043083542
 38.1676607271511088 37.5263010474419119 17.2124891681027847
 38.1676607271511088 37.5263010474419119 20.0974848353438986
 38.1676607271511088 37.5263010474419119 22.9824805025850125
 38.1676607271511088 37.5263010474419119 25.8674761698261264
 38.1676607271511088 37.5263010474419119 28.7524718370672403
 38.1676607271511088 37.5263010474419119 31.6374675043083542
 35.7914654820495883 39.2527079478522936 17.2124891681027847
 35.7914654820495883 39.2527079478522936 20.0974848353438986
 35.7914654820495883 39.2527079478522936 22.9824805025850125
 35.7914654820495883 39.2527079478522936 25.8674761698261264
 35.7914654820495883 39.2527079478522936 28.7524718370672403
 35.7914654820495883 39.2527079478522936 31.6374675043083542
 33.4152702369480608 40.9791148482626681 17.2124891681027847
 33.4152702369480608 40.9791148482626681 20.0974848353438986
 33.4152702369480608 40.9791148482626681 22.9824805025850125
 33.4152702369480608 40.9791148482626681 25.8674761698261264
 33.4152702369480608 40.9791148482626681 28.7524718370672403
 33.4152702369480608 40.9791148482626681 31.6374675043083542
 31.0390749918465403 42.7055217486730498 17.2124891681027847
 31.0390749918465403 42.7055217486730498 20.0974848353438986
 31.0390749918465403 42.7055217486730498 22.9824805025850125
 31.0390749918465403 42.7055217486730498 25.8674761698261264
 31.0390749918465403 42.7055217486730498 28.7524718370672403
 31.0390749918465403 42.7055217486730498 31.6374675043083542
 28.6628797467450198 40.9791148482626753 17.2124891681027847
 28.6628797467450198 40.9791148482626753 20.0974848353438986
 28.6628797467450198 40.9791148482626753 22.9824805025850125
 28.6628797467450198 40.9791148482626753 25.8674761698261264
 28.6628797467450198 40.9791148482626753 28.7524718370672403
 28.6628797467450198 40.9791148482626753 31.6374675043083542
 26.2866845016434958 39.2527079478522936 17.2124891681027847
 26.2866845016434958 39.2527079478522936 20.0974848353438986
 26.2866845016434958 39.2527079478522936 22.9824805025850125
 26.2866845016434958 39.2527079478522936 25.8674761698261264
 26.2866845016434958 39.2527079478522936 28.7524718370672403
 26.2866845016434958 39.2527079478522936 31.6374675043083542
 23.9104892565419718 37.5263010474419190 17.2124891681027847
 23.9104892565419718 37.5263010474419190 20.0974848353438986
 23.9104892565419718 37.5263010474419190 22.9824805025850125
 23.9104892565419718 37.5263010474419190 25.8674761698261264
 23.9104892565419718 37.5263010474419190 28.7524718370672403
 23.9104892565419718 37.5263010474419190 31.6374675043083542
 21.5342940114404513 35.7998941470315373 17.2124891681027847
 21.5342940114404513 35.7998941470315373 20.0974848353438986
 21.5342940114404513 35.7998941470315373 22.9824805025850125
 21.5342940114404513 35.7998941470315373 25.8674761698261264
 21.5342940114404513 35.7998941470315373 28.7524718370672403
 21.5342940114404513 35.7998941470315373 31.6374675043083542
 19.1580987663389273 34.0734872466211627 17.2124891681027847
 19.1580987663389273 34.0734872466211627 20.0974848353438986
 19.1580987663389273 34.0734872466211627 22.9824805025850125
 19.1580987663389273 34.0734872466211627 25.8674761698261264
 19.1580987663389273 34.0734872466211627 28.7524718370672403
 19.1580987663389273 34.0734872466211627 31.6374675043083542
 20.0657245860618190 31.2801022033448142 17.2124891681027847
 20.0657245860618190 31.2801022033448142 20.0974848353438986
 20.0657245860618190 31.2801022033448142 22.9824805025850125
 20.0657245860618190 31.2801022033448142 25.8674761698261264
 20.0657245860618190 31.2801022033448142 28.7524718370672403
 20.0657245860618190 31.2801022033448142 31.6374675043083542
 20.9733504057847142 28.4867171600684657 17.2124891681027847
 20.9733504057847142 28.4867171600684657 20.0974848353438986
 20.9733504057847142 28.4867171600684657 22.9824805025850125
 20.9733504057847142 28.4867171600684657 25.8674761698261264