Au 
 1.0000000000000000
    73.0400000000000063    0.0000000000000000    0.0000000000000000
     0.0000000000000000   73.0400000000000063    0.0000000000000000
     0.0000000000000000    0.0000000000000000   73.0400000000000063
 Au 
 1834
Cartesian
 10.0000000000000000 36.5200000000000031 36.5200000000000031
 12.0400000000000027 34.4800000000000040 36.5200000000000031
 12.0400000000000027 36.5200000000000031 34.4800000000000040
 12.0400000000000027 36.5200000000000031 38.5600000000000023
 12.0400000000000027 38.5600000000000023 36.5200000000000031
 14.0800000000000018 32.4399999999999977 36.5200000000000031
 16.1200000000000010 30.4000000000000021 36.5200000000000031
 16.1200000000000010 32.4399999999999977 34.4800000000000040
 16.1200000000000010 32.4399999999999977 38.5600000000000023
 14.0800000000000018 36.5200000000000031 32.4399999999999977
 16.1200000000000010 34.4800000000000040 32.4399999999999977
 16.1200000000000010 36.5200000000000031 30.4000000000000021
 14.0800000000000018 34.4800000000000040 34.4800000000000040
 14.0800000000000018 36.5200000000000031 36.5200000000000031
 16.1200000000000010 34.4800000000000040 36.5200000000000031
 16.1200000000000010 36.5200000000000031 34.4800000000000040
 14.0800000000000018 34.4800000000000040 38.5600000000000023
 14.0800000000000018 36.5200000000000031 40.6000000000000014
 16.1200000000000010 34.4800000000000040 40.6000000000000014
 16.1200000000000010 36.5200000000000031 38.5600000000000023
 16.1200000000000010 36.5200000000000031 42.6400000000000006
 16.1200000000000010 38.5600000000000023 32.4399999999999977
 14.0800000000000018 38.5600000000000023 34.4800000000000040
 14.0800000000000018 40.6000000000000014 36.5200000000000031
 16.1200000000000010 38.5600000000000023 36.5200000000000031
 16.1200000000000010 40.6000000000000014 34.4800000000000040
 14.0800000000000018 38.5600000000000023 38.5600000000000023
 16.1200000000000010 38.5600000000000023 40.6000000000000014
 16.1200000000000010 40.6000000000000014 38.5600000000000023
 16.1200000000000010 42.6400000000000006 36.5200000000000031
 18.1600000000000037 28.3599999999999994 36.5200000000000031
 20.2000000000000028 26.3200000000000003 36.5200000000000031
 20.2000000000000028 28.3599999999999994 34.4800000000000040
 20.2000000000000028 28.3599999999999994 38.5600000000000023
 18.1600000000000037 32.4399999999999977 32.4399999999999977
 20.2000000000000028 30.4000000000000021 32.4399999999999977
 20.2000000000000028 32.4399999999999977 30.4000000000000021
 18.1600000000000037 30.4000000000000021 34.4800000000000040
 18.1600000000000037 32.4399999999999977 36.5200000000000031
 20.2000000000000028 30.4000000000000021 36.5200000000000031
 20.2000000000000028 32.4399999999999977 34.4800000000000040
 18.1600000000000037 30.4000000000000021 38.5600000000000023
 18.1600000000000037 32.4399999999999977 40.6000000000000014
 20.2000000000000028 30.4000000000000021 40.6000000000000014
 20.2000000000000028 32.4399999999999977 38.5600000000000023
 20.2000000000000028 32.4399999999999977 42.6400000000000006
 18.1600000000000037 36.5200000000000031 28.3599999999999994
 20.2000000000000028 34.4800000000000040 28.3599999999999994
 20.2000000000000028 36.5200000000000031 26.3200000000000003
 18.1600000000000037 34.4800000000000040 30.4000000000000021
 18.1600000000000037 36.5200000000000031 32.4399999999999977
 20.2000000000000028 34.4800000000000040 32.4399999999999977
 20.2000000000000028 36.5200000000000031 30.4000000000000021
 18.1600000000000037 34.4800000000000040 34.4800000000000040
 18.1600000000000037 36.5200000000000031 36.5200000000000031
 20.2000000000000028 34.4800000000000040 36.5200000000000031
 20.2000000000000028 36.5200000000000031 34.4800000000000040
 18.1600000000000037 34.4800000000000040 38.5600000000000023
 18.1600000000000037 36.5200000000000031 40.6000000000000014
 20.2000000000000028 34.4800000000000040 40.6000000000000014
 20.2000000000000028 36.5200000000000031 38.5600000000000023
 18.1600000000000037 34.4800000000000040 42.6400000000000006
 18.1600000000000037 36.5200000000000031 44.6799999999999997
 20.2000000000000028 34.4800000000000040 44.6799999999999997
 20.2000000000000028 36.5200000000000031 42.6400000000000006
 20.2000000000000028 36.5200000000000031 46.7199999999999989
 20.2000000000000028 38.5600000000000023 28.3599999999999994
 18.1600000000000037 38.5600000000000023 30.4000000000000021
 18.1600000000000037 40.6000000000000014 32.4399999999999977
 20.2000000000000028 38.5600000000000023 32.4399999999999977
 20.2000000000000028 40.6000000000000014 30.4000000000000021
 18.1600000000000037 38.5600000000000023 34.4800000000000040
 18.1600000000000037 40.6000000000000014 36.5200000000000031
 20.2000000000000028 38.5600000000000023 36.5200000000000031
 20.2000000000000028 40.6000000000000014 34.4800000000000040
 18.1600000000000037 38.5600000000000023 38.5600000000000023
 18.1600000000000037 40.6000000000000014 40.6000000000000014
 20.2000000000000028 38.5600000000000023 40.6000000000000014
 20.2000000000000028 40.6000000000000014 38.5600000000000023
 18.1600000000000037 38.5600000000000023 42.6400000000000006
 20.2000000000000028 38.5600000000000023 44.6799999999999997
 20.2000000000000028 40.6000000000000014 42.6400000000000006
 20.2000000000000028 42.6400000000000006 32.4399999999999977
 18.1600000000000037 42.6400000000000006 34.4800000000000040
 18.1600000000000037 44.6799999999999997 36.5200000000000031
 20.2000000000000028 42.6400000000000006 36.5200000000000031
 20.2000000000000028 44.6799999999999997 34.4800000000000040
 18.1600000000000037 42.6400000000000006 38.5600000000000023
 20.2000000000000028 42.6400000000000006 40.6000000000000014
 20.2000000000000028 44.6799999999999997 38.5600000000000023
 20.2000000000000028 46.7199999999999989 36.5200000000000031
 22.2400000000000020 24.2800000000000011 36.5200000000000031
 24.2800000000000011 22.2400000000000020 36.5200000000000031
 24.2800000000000011 24.2800000000000011 34.4800000000000040
 24.2800000000000011 24.2800000000000011 38.5600000000000023
 22.2400000000000020 28.3599999999999994 32.4399999999999977
 24.2800000000000011 26.3200000000000003 32.4399999999999977
 24.2800000000000011 28.3599999999999994 30.4000000000000021
 22.2400000000000020 26.3200000000000003 34.4800000000000040
 22.2400000000000020 28.3599999999999994 36.5200000000000031
 24.2800000000000011 26.3200000000000003 36.5200000000000031
 24.2800000000000011 28.3599999999999994 34.4800000000000040
 22.2400000000000020 26.3200000000000003 38.5600000000000023
 22.2400000000000020 28.3599999999999994 40.6000000000000014
 24.2800000000000011 26.3200000000000003 40.6000000000000014
 24.2800000000000011 28.3599999999999994 38.5600000000000023
 24.2800000000000011 28.3599999999999994 42.6400000000000006
 22.2400000000000020 32.4399999999999977 28.3599999999999994
 24.2800000000000011 30.4000000000000021 28.3599999999999994
 24.2800000000000011 32.4399999999999977 26.3200000000000003
 22.2400000000000020 30.4000000000000021 30.4000000000000021
 22.2400000000000020 32.4399999999999977 32.4399999999999977
 24.2800000000000011 30.4000000000000021 32.4399999999999977
 24.2800000000000011 32.4399999999999977 30.4000000000000021
 22.2400000000000020 30.4000000000000021 34.4800000000000040
 22.2400000000000020 32.4399999999999977 36.5200000000000031
 24.2800000000000011 30.4000000000000021 36.5200000000000031
 24.2800000000000011 32.4399999999999977 34.4800000000000040
 22.2400000000000020 30.4000000000000021 38.5600000000000023
 22.2400000000000020 32.4399999999999977 40.6000000000000014
 24.2800000000000011 30.4000000000000021 40.6000000000000014
 24.2800000000000011 32.4399999999999977 38.5600000000000023
 22.2400000000000020 30.4000000000000021 42.6400000000000006
 22.2400000000000020 32.4399999999999977 44.6799999999999997
 24.2800000000000011 30.4000000000000021 44.6799999999999997
 24.2800000000000011 32.4399999999999977 42.6400000000000006
 24.2800000000000011 32.4399999999999977 46.7199999999999989
 22.2400000000000020 36.5200000000000031 24.2800000000000011
 24.2800000000000011 34.4800000000000040 24.2800000000000011
 24.2800000000000011 36.5200000000000031 22.2400000000000020
 22.2400000000000020 34.4800000000000040 26.3200000000000003
 22.2400000000000020 36.5200000000000031 28.3599999999999994
 24.2800000000000011 34.4800000000000040 28.3599999999999994
 24.2800000000000011 36.5200000000000031 26.3200000000000003
 22.2400000000000020 34.4800000000000040 30.4000000000000021
 22.2400000000000020 36.5200000000000031 32.4399999999999977
 24.2800000000000011 34.4800000000000040 32.4399999999999977
 24.2800000000000011 36.5200000000000031 30.4000000000000021
 22.2400000000000020 34.4800000000000040 34.4800000000000040
 22.2400000000000020 36.5200000000000031 36.5200000000000031
 24.2800000000000011 34.4800000000000040 36.5200000000000031
 24.2800000000000011 36.5200000000000031 34.4800000000000040
 22.2400000000000020 34.4800000000000040 38.5600000000000023
 22.2400000000000020 36.5200000000000031 40.6000000000000014
 24.2800000000000011 34.4800000000000040 40.6000000000000014
 24.2800000000000011 36.5200000000000031 38.5600000000000023
 22.2400000000000020 34.4800000000000040 42.6400000000000006
 22.2400000000000020 36.5200000000000031 44.6799999999999997
 24.2800000000000011 34.4800000000000040 44.6799999999999997
 24.2800000000000011 36.5200000000000031 42.6400000000000006
 22.2400000000000020 34.4800000000000040 46.7199999999999989
 22.2400000000000020 36.5200000000000031 48.7599999999999980
 24.2800000000000011 34.4800000000000040 48.7599999999999980
 24.2800000000000011 36.5200000000000031 46.7199999999999989
 24.2800000000000011 36.5200000000000031 50.8000000000000043
 24.2800000000000011 38.5600000000000023 24.2800000000000011
 22.2400000000000020 38.5600000000000023 26.3200000000000003
 22.2400000000000020 40.6000000000000014 28.3599999999999994
 24.2800000000000011 38.5600000000000023 28.3599999999999994
 24.2800000000000011 40.6000000000000014 26.3200000000000003
 22.2400000000000020 38.5600000000000023 30.4000000000000021
 22.2400000000000020 40.6000000000000014 32.4399999999999977
 24.2800000000000011 38.5600000000000023 32.4399999999999977
 24.2800000000000011 40.6000000000000014 30.4000000000000021
 22.2400000000000020 38.5600000000000023 34.4800000000000040
 22.2400000000000020 40.6000000000000014 36.5200000000000031
 24.2800000000000011 38.5600000000000023 36.5200000000000031
 24.2800000000000011 40.6000000000000014 34.4800000000000040
 22.2400000000000020 38.5600000000000023 38.5600000000000023
 22.2400000000000020 40.6000000000000014 40.6000000000000014
 24.2800000000000011 38.5600000000000023 40.6000000000000014
 24.2800000000000011 40.6000000000000014 38.5600000000000023
 22.2400000000000020 38.5600000000000023 42.6400000000000006
 22.2400000000000020 40.6000000000000014 44.6799999999999997
 24.2800000000000011 38.5600000000000023 44.6799999999999997
 24.2800000000000011 40.6000000000000014 42.6400000000000006
 22.2400000000000020 38.5600000000000023 46.7199999999999989
 24.2800000000000011 38.5600000000000023 48.7599999999999980
 24.2800000000000011 40.6000000000000014 46.7199999999999989
 24.2800000000000011 42.6400000000000006 28.3599999999999994
 22.2400000000000020 42.6400000000000006 30.4000000000000021
 22.2400000000000020 44.6799999999999997 32.4399999999999977
 24.2800000000000011 42.6400000000000006 32.4399999999999977
 24.2800000000000011 44.6799999999999997 30.4000000000000021
 22.2400000000000020 42.6400000000000006 34.4800000000000040
 22.2400000000000020 44.6799999999999997 36.5200000000000031
 24.2800000000000011 42.6400000000000006 36.5200000000000031
 24.2800000000000011 44.6799999999999997 34.4800000000000040
 22.2400000000000020 42.6400000000000006 38.5600000000000023
 22.2400000000000020 44.6799999999999997 40.6000000000000014
 24.2800000000000011 42.6400000000000006 40.6000000000000014
 24.2800000000000011 44.6799999999999997 38.5600000000000023
 22.2400000000000020 42.6400000000000006 42.6400000000000006
 24.2800000000000011 42.6400000000000006 44.6799999999999997
 24.2800000000000011 44.6799999999999997 42.6400000000000006
 24.2800000000000011 46.7199999999999989 32.4399999999999977
 22.2400000000000020 46.7199999999999989 34.4800000000000040
 22.2400000000000020 48.7599999999999980 36.5200000000000031
 24.2800000000000011 46.7199999999999989 36.5200000000000031
 24.2800000000000011 48.7599999999999980 34.4800000000000040
 22.2400000000000020 46.7199999999999989 38.5600000000000023
 24.2800000000000011 46.7199999999999989 40.6000000000000014
 24.2800000000000011 48.7599999999999980 38.5600000000000023
 24.2800000000000011 50.8000000000000043 36.5200000000000031
 26.3200000000000003 20.2000000000000028 36.5200000000000031
 28.3599999999999994 18.1600000000000037 36.5200000000000031
 28.3599999999999994 20.2000000000000028 34.4800000000000040
 28.3599999999999994 20.2000000000000028 38.5600000000000023
 26.3200000000000003 24.2800000000000011 32.4399999999999977
 28.3599999999999994 22.2400000000000020 32.4399999999999977
 28.3599999999999994 24.2800000000000011 30.4000000000000021
 26.3200000000000003 22.2400000000000020 34.4800000000000040
 26.3200000000000003 24.2800000000000011 36.5200000000000031
 28.3599999999999994 22.2400000000000020 36.5200000000000031
 28.3599999999999994 24.2800000000000011 34.4800000000000040
 26.3200000000000003 22.2400000000000020 38.5600000000000023
 26.3200000000000003 24.2800000000000011 40.6000000000000014
 28.3599999999999994 22.2400000000000020 40.6000000000000014
 28.3599999999999994 24.2800000000000011 38.5600000000000023
 28.3599999999999994 24.2800000000000011 42.6400000000000006
 26.3200000000000003 28.3599999999999994 28.3599999999999994
 28.3599999999999994 26.3200000000000003 28.3599999999999994
 28.3599999999999994 28.3599999999999994 26.3200000000000003
 26.3200000000000003 26.3200000000000003 30.4000000000000021
 26.3200000000000003 28.3599999999999994 32.4399999999999977
 28.3599999999999994 26.3200000000000003 32.4399999999999977
 28.3599999999999994 28.3599999999999994 30.4000000000000021
 26.3200000000000003 26.3200000000000003 34.4800000000000040
 26.3200000000000003 28.3599999999999994 36.5200000000000031
 28.3599999999999994 26.3200000000000003 36.5200000000000031
 28.3599999999999994 28.3599999999999994 34.4800000000000040
 26.3200000000000003 26.3200000000000003 38.5600000000000023
 26.3200000000000003 28.3599999999999994 40.6000000000000014
 28.3599999999999994 26.3200000000000003 40.6000000000000014
 28.3599999999999994 28.3599999999999994 38.5600000000000023
 26.3200000000000003 26.3200000000000003 42.6400000000000006
 26.3200000000000003 28.3599999999999994 44.6799999999999997
 28.3599999999999994 26.3200000000000003 44.6799999999999997
 28.3599999999999994 28.3599999999999994 42.6400000000000006
 28.3599999999999994 28.3599999999999994 46.7199999999999989
 26.3200000000000003 32.4399999999999977 24.2800000000000011
 28.3599999999999994 30.4000000000000021 24.2800000000000011
 28.3599999999999994 32.4399999999999977 22.2400000000000020
 26.3200000000000003 30.4000000000000021 26.3200000000000003
 26.3200000000000003 32.4399999999999977 28.3599999999999994
 28.3599999999999994 30.4000000000000021 28.3599999999999994
 28.3599999999999994 32.4399999999999977 26.3200000000000003
 26.3200000000000003 30.4000000000000021 30.4000000000000021
 26.3200000000000003 32.4399999999999977 32.4399999999999977
 28.3599999999999994 30.4000000000000021 32.4399999999999977
 28.3599999999999994 32.4399999999999977 30.4000000000000021
 26.3200000000000003 30.4000000000000021 34.4800000000000040
 26.3200000000000003 32.4399999999999977 36.5200000000000031
 28.3599999999999994 30.4000000000000021 36.5200000000000031
 28.3599999999999994 32.4399999999999977 34.4800000000000040
 26.3200000000000003 30.4000000000000021 38.5600000000000023
 26.3200000000000003 32.4399999999999977 40.6000000000000014
 28.3599999999999994 30.4000000000000021 40.6000000000000014
 28.3599999999999994 32.4399999999999977 38.5600000000000023
 26.3200000000000003 30.4000000000000021 42.6400000000000006
 26.3200000000000003 32.4399999999999977 44.6799999999999997
 28.3599999999999994 30.4000000000000021 44.6799999999999997
 28.3599999999999994 32.4399999999999977 42.6400000000000006
 26.3200000000000003 30.4000000000000021 46.7199999999999989
 26.3200000000000003 32.4399999999999977 48.7599999999999980
 28.3599999999999994 30.4000000000000021 48.7599999999999980
 28.3599999999999994 32.4399999999999977 46.7199999999999989
 28.3599999999999994 32.4399999999999977 50.8000000000000043
 26.3200000000000003 36.5200000000000031 20.2000000000000028
 28.3599999999999994 34.4800000000000040 20.2000000000000028
 28.3599999999999994 36.5200000000000031 18.1600000000000037
 26.3200000000000003 34.4800000000000040 22.2400000000000020
 26.3200000000000003 36.5200000000000031 24.2800000000000011
 28.3599999999999994 34.4800000000000040 24.2800000000000011
 28.3599999999999994 36.5200000000000031 22.2400000000000020
 26.3200000000000003 34.4800000000000040 26.3200000000000003
 26.3200000000000003 36.5200000000000031 28.3599999999999994
 28.3599999999999994 34.4800000000000040 28.3599999999999994
 28.3599999999999994 36.5200000000000031 26.3200000000000003
 26.3200000000000003 34.4800000000000040 30.4000000000000021
 26.3200000000000003 36.5200000000000031 32.4399999999999977
 28.3599999999999994 34.4800000000000040 32.4399999999999977
 28.3599999999999994 36.5200000000000031 30.4000000000000021
 26.3200000000000003 34.4800000000000040 34.4800000000000040
 26.3200000000000003 36.5200000000000031 36.5200000000000031
 28.3599999999999994 34.4800000000000040 36.5200000000000031
 28.3599999999999994 36.5200000000000031 34.4800000000000040
 26.3200000000000003 34.4800000000000040 38.5600000000000023
 26.3200000000000003 36.5200000000000031 40.6000000000000014
 28.3599999999999994 34.4800000000000040 40.6000000000000014
 28.3599999999999994 36.5200000000000031 38.5600000000000023
 26.3200000000000003 34.4800000000000040 42.6400000000000006
 26.3200000000000003 36.5200000000000031 44.6799999999999997
 28.3599999999999994 34.4800000000000040 44.6799999999999997
 28.3599999999999994 36.5200000000000031 42.6400000000000006
 26.3200000000000003 34.4800000000000040 46.7199999999999989
 26.3200000000000003 36.5200000000000031 48.7599999999999980
 28.3599999999999994 34.4800000000000040 48.7599999999999980
 28.3599999999999994 36.5200000000000031 46.7199999999999989
 26.3200000000000003 34.4800000000000040 50.8000000000000043
 26.3200000000000003 36.5200000000000031 52.8400000000000034
 28.3599999999999994 34.4800000000000040 52.8400000000000034
 28.3599999999999994 36.5200000000000031 50.8000000000000043
 28.3599999999999994 36.5200000000000031 54.8800000000000026
 28.3599999999999994 38.5600000000000023 20.2000000000000028
 26.3200000000000003 38.5600000000000023 22.2400000000000020
 26.3200000000000003 40.6000000000000014 24.2800000000000011
 28.3599999999999994 38.5600000000000023 24.2800000000000011
 28.3599999999999994 40.6000000000000014 22.2400000000000020
 26.3200000000000003 38.5600000000000023 26.3200000000000003
 26.3200000000000003 40.6000000000000014 28.3599999999999994
 28.3599999999999994 38.5600000000000023 28.3599999999999994
 28.3599999999999994 40.6000000000000014 26.3200000000000003
 26.3200000000000003 38.5600000000000023 30.4000000000000021
 26.3200000000000003 40.6000000000000014 32.4399999999999977
 28.3599999999999994 38.5600000000000023 32.4399999999999977
 28.3599999999999994 40.6000000000000014 30.4000000000000021
 26.3200000000000003 38.5600000000000023 34.4800000000000040
 26.3200000000000003 40.6000000000000014 36.5200000000000031
 28.3599999999999994 38.5600000000000023 36.5200000000000031
 28.3599999999999994 40.6000000000000014 34.4800000000000040
 26.3200000000000003 38.5600000000000023 38.5600000000000023
 26.3200000000000003 40.6000000000000014 40.6000000000000014
 28.3599999999999994 38.5600000000000023 40.6000000000000014
 28.3599999999999994 40.6000000000000014 38.5600000000000023
 26.3200000000000003 38.5600000000000023 42.6400000000000006
 26.3200000000000003 40.6000000000000014 44.6799999999999997
 28.3599999999999994 38.5600000000000023 44.6799999999999997
 28.3599999999999994 40.6000000000000014 42.6400000000000006
 26.3200000000000003 38.5600000000000023 46.7199999999999989
 26.3200000000000003 40.6000000000000014 48.7599999999999980
 28.3599999999999994 38.5600000000000023 48.7599999999999980
 28.3599999999999994 40.6000000000000014 46.7199999999999989
 26.3200000000000003 38.5600000000000023 50.8000000000000043
 28.3599999999999994 38.5600000000000023 52.8400000000000034
 28.3599999999999994 40.6000000000000014 50.8000000000000043
 28.3599999999999994 42.6400000000000006 24.2800000000000011
 26.3200000000000003 42.6400000000000006 26.3200000000000003
 26.3200000000000003 44.6799999999999997 28.3599999999999994
 28.3599999999999994 42.6400000000000006 28.3599999999999994
 28.3599999999999994 44.6799999999999997 26.3200000000000003
 26.3200000000000003 42.6400000000000006 30.4000000000000021
 26.3200000000000003 44.6799999999999997 32.4399999999999977
 28.3599999999999994 42.6400000000000006 32.4399999999999977
 28.3599999999999994 44.6799999999999997 30.4000000000000021
 26.3200000000000003 42.6400000000000006 34.4800000000000040
 26.3200000000000003 44.6799999999999997 36.5200000000000031
 28.3599999999999994 42.6400000000000006 36.5200000000000031
 28.3599999999999994 44.6799999999999997 34.4800000000000040
 26.3200000000000003 42.6400000000000006 38.5600000000000023
 26.3200000000000003 44.6799999999999997 40.6000000000000014
 28.3599999999999994 42.6400000000000006 40.6000000000000014
 28.3599999999999994 44.6799999999999997 38.5600000000000023
 26.3200000000000003 42.6400000000000006 42.6400000000000006
 26.3200000000000003 44.6799999999999997 44.6799999999999997
 28.3599999999999994 42.6400000000000006 44.6799999999999997
 28.3599999999999994 44.6799999999999997 42.6400000000000006
 26.3200000000000003 42.6400000000000006 46.7199999999999989
 28.3599999999999994 42.6400000000000006 48.7599999999999980
 28.3599999999999994 44.6799999999999997 46.7199999999999989
 28.3599999999999994 46.7199999999999989 28.3599999999999994
 26.3200000000000003 46.7199999999999989 30.4000000000000021
 26.3200000000000003 48.7599999999999980 32.4399999999999977
 28.3599999999999994 46.7199999999999989 32.4399999999999977
 28.3599999999999994 48.7599999999999980 30.4000000000000021
 26.3200000000000003 46.7199999999999989 34.4800000000000040
 26.3200000000000003 48.7599999999999980 36.5200000000000031
 28.3599999999999994 46.7199999999999989 36.5200000000000031
 28.3599999999999994 48.7599999999999980 34.4800000000000040
 26.3200000000000003 46.7199999999999989 38.5600000000000023
 26.3200000000000003 48.7599999999999980 40.6000000000000014
 28.3599999999999994 46.7199999999999989 40.6000000000000014
 28.3599999999999994 48.7599999999999980 38.5600000000000023
 26.3200000000000003 46.7199999999999989 42.6400000000000006
 28.3599999999999994 46.7199999999999989 44.6799999999999997
 28.3599999999999994 48.7599999999999980 42.6400000000000006
 28.3599999999999994 50.8000000000000043 32.4399999999999977
 26.3200000000000003 50.8000000000000043 34.4800000000000040
 26.3200000000000003 52.8400000000000034 36.5200000000000031
 28.3599999999999994 50.8000000000000043 36.5200000000000031
 28.3599999999999994 52.8400000000000034 34.4800000000000040
 26.3200000000000003 50.8000000000000043 38.5600000000000023
 28.3599999999999994 50.8000000000000043 40.6000000000000014
 28.3599999999999994 52.8400000000000034 38.5600000000000023
 28.3599999999999994 54.8800000000000026 36.5200000000000031
 30.4000000000000021 16.1200000000000010 36.5200000000000031
 32.4399999999999977 14.0800000000000018 36.5200000000000031
 32.4399999999999977 16.1200000000000010 34.4800000000000040
 32.4399999999999977 16.1200000000000010 38.5600000000000023
 30.4000000000000021 20.2000000000000028 32.4399999999999977
 32.4399999999999977 18.1600000000000037 32.4399999999999977
 32.4399999999999977 20.2000000000000028 30.4000000000000021
 30.4000000000000021 18.1600000000000037 34.4800000000000040
 30.4000000000000021 20.2000000000000028 36.5200000000000031
 32.4399999999999977 18.1600000000000037 36.5200000000000031
 32.4399999999999977 20.2000000000000028 34.4800000000000040
 30.4000000000000021 18.1600000000000037 38.5600000000000023
 30.4000000000000021 20.2000000000000028 40.6000000000000014
 32.4399999999999977 18.1600000000000037 40.6000000000000014
 32.4399999999999977 20.2000000000000028 38.5600000000000023
 32.4399999999999977 20.2000000000000028 42.6400000000000006
 30.4000000000000021 24.2800000000000011 28.3599999999999994
 32.4399999999999977 22.2400000000000020 28.3599999999999994
 32.4399999999999977 24.2800000000000011 26.3200000000000003
 30.4000000000000021 22.2400000000000020 30.4000000000000021
 30.4000000000000021 24.2800000000000011 32.4399999999999977
 32.4399999999999977 22.2400000000000020 32.4399999999999977
 32.4399999999999977 24.2800000000000011 30.4000000000000021
 30.4000000000000021 22.2400000000000020 34.4800000000000040
 30.4000000000000021 24.2800000000000011 36.5200000000000031
 32.4399999999999977 22.2400000000000020 36.5200000000000031
 32.4399999999999977 24.2800000000000011 34.4800000000000040
 30.4000000000000021 22.2400000000000020 38.5600000000000023
 30.4000000000000021 24.2800000000000011 40.6000000000000014
 32.4399999999999977 22.2400000000000020 40.6000000000000014
 32.4399999999999977 24.2800000000000011 38.5600000000000023
 30.4000000000000021 22.2400000000000020 42.6400000000000006
 30.4000000000000021 24.2800000000000011 44.6799999999999997
 32.4399999999999977 22.2400000000000020 44.6799999999999997
 32.4399999999999977 24.2800000000000011 42.6400000000000006
 32.4399999999999977 24.2800000000000011 46.7199999999999989
 30.4000000000000021 28.3599999999999994 24.2800000000000011
 32.4399999999999977 26.3200000000000003 24.2800000000000011
 32.4399999999999977 28.3599999999999994 22.2400000000000020
 30.4000000000000021 26.3200000000000003 26.3200000000000003
 30.4000000000000021 28.3599999999999994 28.3599999999999994
 32.4399999999999977 26.3200000000000003 28.3599999999999994
 32.4399999999999977 28.3599999999999994 26.3200000000000003
 30.4000000000000021 26.3200000000000003 30.4000000000000021
 30.4000000000000021 28.3599999999999994 32.4399999999999977
 32.4399999999999977 26.3200000000000003 32.4399999999999977
 32.4399999999999977 28.3599999999999994 30.4000000000000021
 30.4000000000000021 26.3200000000000003 34.4800000000000040
 30.4000000000000021 28.3599999999999994 36.5200000000000031
 32.4399999999999977 26.3200000000000003 36.5200000000000031
 32.4399999999999977 28.3599999999999994 34.4800000000000040
 30.4000000000000021 26.3200000000000003 38.5600000000000023
 30.4000000000000021 28.3599999999999994 40.6000000000000014
 32.4399999999999977 26.3200000000000003 40.6000000000000014
 32.4399999999999977 28.3599999999999994 38.5600000000000023
 30.4000000000000021 26.3200000000000003 42.6400000000000006
 30.4000000000000021 28.3599999999999994 44.6799999999999997
 32.4399999999999977 26.3200000000000003 44.6799999999999997
 32.4399999999999977 28.3599999999999994 42.6400000000000006
 30.4000000000000021 26.3200000000000003 46.7199999999999989
 30.4000000000000021 28.3599999999999994 48.7599999999999980
 32.4399999999999977 26.3200000000000003 48.7599999999999980
 32.4399999999999977 28.3599999999999994 46.7199999999999989
 32.4399999999999977 28.3599999999999994 50.8000000000000043
 30.4000000000000021 32.4399999999999977 20.2000000000000028
 32.4399999999999977 30.4000000000000021 20.2000000000000028
 32.4399999999999977 32.4399999999999977 18.1600000000000037
 30.4000000000000021 30.4000000000000021 22.2400000000000020
 30.4000000000000021 32.4399999999999977 24.2800000000000011
 32.4399999999999977 30.4000000000000021 24.2800000000000011
 32.4399999999999977 32.4399999999999977 22.2400000000000020
 30.4000000000000021 30.4000000000000021 26.3200000000000003
 30.4000000000000021 32.4399999999999977 28.3599999999999994
 32.4399999999999977 30.4000000000000021 28.3599999999999994
 32.4399999999999977 32.4399999999999977 26.3200000000000003
 30.4000000000000021 30.4000000000000021 30.4000000000000021
 30.4000000000000021 32.4399999999999977 32.4399999999999977
 32.4399999999999977 30.4000000000000021 32.4399999999999977
 32.4399999999999977 32.4399999999999977 30.4000000000000021
 30.4000000000000021 30.4000000000000021 34.4800000000000040
 30.4000000000000021 32.4399999999999977 36.5200000000000031
 32.4399999999999977 30.4000000000000021 36.5200000000000031
 32.4399999999999977 32.4399999999999977 34.4800000000000040
 30.4000000000000021 30.4000000000000021 38.5600000000000023
 30.4000000000000021 32.4399999999999977 40.6000000000000014
 32.4399999999999977 30.4000000000000021 40.6000000000000014
 32.4399999999999977 32.4399999999999977 38.5600000000000023
 30.4000000000000021 30.4000000000000021 42.6400000000000006
 30.4000000000000021 32.4399999999999977 44.6799999999999997
 32.4399999999999977 30.4000000000000021 44.6799999999999997
 32.4399999999999977 32.4399999999999977 42.6400000000000006
 30.4000000000000021 30.4000000000000021 46.7199999999999989
 30.4000000000000021 32.4399999999999977 48.7599999999999980
 32.4399999999999977 30.4000000000000021 48.7599999999999980
 32.4399999999999977 32.4399999999999977 46.7199999999999989
 30.4000000000000021 30.4000000000000021 50.8000000000000043
 30.4000000000000021 32.4399999999999977 52.8400000000000034
 32.4399999999999977 30.4000000000000021 52.8400000000000034
 32.4399999999999977 32.4399999999999977 50.8000000000000043
 32.4399999999999977 32.4399999999999977 54.8800000000000026
 30.4000000000000021 36.5200000000000031 16.1200000000000010
 32.4399999999999977 34.4800000000000040 16.1200000000000010